15
1-(1H-Pyrrol-1-yl)ethanone
C      2.281800     -0.207600      0.414700
C      1.317700      0.344400     -0.590000
O      1.637700      0.924600     -1.620500
N     -0.045100      0.159800     -0.286400
C     -0.604000     -0.464400      0.818000
C     -1.977900     -0.422500      0.716900
C     -2.291000      0.246300     -0.484000
C     -1.098900      0.591500     -1.077800
H      2.164400     -1.290800      0.505000
H      2.147500      0.279800      1.384100
H      3.302300     -0.006100      0.074200
H      0.015000     -0.892300      1.594300
H     -2.677700     -0.831900      1.434700
H     -3.277300      0.456300     -0.878100
H     -0.894600      1.112800     -2.005100
