18
1-Indanone
O     -1.686200      2.272200     -0.859800
C     -1.374600      1.153800     -0.490900
C     -2.314800      0.000500     -0.242500
C     -1.415700     -1.165500      0.202200
C     -0.031800     -0.600500      0.177200
C      1.153300     -1.244400      0.494900
C      2.350000     -0.523700      0.403500
C      2.353200      0.822800     -0.001000
C      1.158200      1.467200     -0.319900
C     -0.008100      0.730900     -0.220600
H     -3.028900      0.266400      0.542500
H     -2.850300     -0.246700     -1.164000
H     -1.505900     -2.009600     -0.489300
H     -1.683900     -1.498700      1.210000
H      1.161500     -2.284100      0.808400
H      3.291800     -1.010800      0.648600
H      3.294200      1.364500     -0.065300
H      1.138100      2.505500     -0.634200
