21
1-Tetralone
O     -0.502300      2.836500      0.438100
C     -0.699300      1.638200      0.252300
C     -2.099500      1.074500      0.157000
C     -2.149200     -0.391500      0.556500
C     -1.179200     -1.212700     -0.283500
C      0.216600     -0.655800     -0.200900
C      1.316000     -1.497900     -0.421700
C      2.617000     -0.993900     -0.368000
C      2.834800      0.356800     -0.103000
C      1.750300      1.208700      0.103700
C      0.444100      0.707100      0.050200
H     -2.748200      1.649200      0.827200
H     -2.454900      1.213200     -0.870000
H     -3.167200     -0.777500      0.433000
H     -1.892100     -0.490700      1.619300
H     -1.495900     -1.217200     -1.333400
H     -1.193600     -2.248900      0.074600
H      1.166000     -2.554500     -0.635000
H      3.463000     -1.656400     -0.535400
H      3.848000      0.748700     -0.062400
H      1.925500      2.264400      0.301400
