17
1_3-Indandione
O     -1.429500      2.532000      0.579800
C     -1.294700      1.345100      0.347500
C     -2.389300      0.311700      0.230500
C     -1.634700     -0.962900     -0.061900
O     -2.107400     -2.070500     -0.236600
C     -0.204600     -0.662300     -0.106100
C      0.851800     -1.522500     -0.342000
C      2.140100     -0.979000     -0.330600
C      2.342400      0.394200     -0.087000
C      1.259800      1.247000      0.149300
C     -0.005400      0.689700      0.133700
H     -3.048200      0.557000     -0.604900
H     -2.922600      0.222000      1.179000
H      0.684500     -2.579000     -0.528500
H      2.998800     -1.623400     -0.512000
H      3.355000      0.794400     -0.083100
H      1.404100      2.306500      0.338100
