26
2,2-Dimethyl-cycloheptanone
O      0.445000     -2.206800      1.155200
C      0.133400     -1.334700      0.339100
C     -1.221900     -1.385900     -0.328500
C     -2.205200     -0.472500      0.386400
C     -2.078400      0.995000     -0.011700
C     -0.714800      1.622200      0.276500
C      0.414000      1.054400     -0.589300
C      1.109100     -0.214600     -0.044700
C      2.032700     -0.779000     -1.138400
C      1.965000      0.141100      1.186400
H     -1.575700     -2.422000     -0.258600
H     -1.133500     -1.164200     -1.396300
H     -3.223900     -0.800000      0.145400
H     -2.092800     -0.566100      1.473800
H     -2.841700      1.564200      0.533400
H     -2.316300      1.106800     -1.077000
H     -0.481700      1.551500      1.343600
H     -0.799100      2.693600      0.052800
H      0.033700      0.878000     -1.604000
H      1.175400      1.838900     -0.701700
H      2.786100     -0.043200     -1.441100
H      1.462900     -1.065400     -2.029900
H      2.559200     -1.676100     -0.792200
H      2.648800      0.969600      0.970600
H      2.575800     -0.710900      1.508000
H      1.344200      0.426100      2.042200
