19
2,4-Diisocyanato-1-methylbenzene
C     -2.450900     -0.891600     -0.183600
C     -1.039700     -0.544100      0.205700
C     -0.127300     -1.572000      0.485400
C      1.183500     -1.274800      0.863000
C      1.613700      0.052500      0.956900
N      2.916800      0.356100      1.384000
C      3.678300      0.374900      0.489700
O      4.443000      0.393000     -0.403400
C      0.699100      1.079100      0.691500
C     -0.617300      0.798400      0.286900
N     -1.510600      1.859400      0.045900
C     -1.434100      2.255200     -1.057700
O     -1.359900      2.653500     -2.161600
H     -2.625700     -0.639600     -1.234300
H     -2.649500     -1.961100     -0.056600
H     -3.166300     -0.351700      0.445200
H     -0.435400     -2.614300      0.424500
H      1.868600     -2.087200      1.096400
H      1.013700      2.114300      0.806700
