14
2,5-Dichlorophenyl_isocyanate
Cl     -1.504700      2.995500     -0.195000
C     -0.983700      1.352500     -0.073300
C      0.266200      1.026000     -0.612000
C      0.754600     -0.284900     -0.538400
N      1.991000     -0.615500     -1.115400
C      2.869900     -0.557000     -0.337800
O      3.748200     -0.499700      0.441700
C     -0.044300     -1.274000      0.050200
C     -1.292500     -0.952100      0.590200
C     -1.763900      0.362000      0.532900
Cl     -3.314000      0.691100      1.218900
H      0.864800      1.794400     -1.096800
H      0.303300     -2.304800      0.086200
H     -1.894900     -1.733400      1.048700
