20
2,6-Dimethylphenyl_isocyanate
C      2.469600     -0.824500      0.185300
C      1.240900      0.034200      0.050900
C      1.363100      1.425400      0.184700
C      0.248000      2.249700      0.060500
C     -1.001200      1.696600     -0.207600
C     -1.152500      0.308700     -0.346300
C     -2.517300     -0.252600     -0.642300
C     -0.032000     -0.538400     -0.179000
N     -0.171100     -1.936400     -0.307300
C     -0.401100     -2.447500      0.725300
O     -0.631600     -2.969300      1.753900
H      3.383800     -0.223200      0.136600
H      2.522500     -1.554100     -0.629400
H      2.459900     -1.349500      1.145500
H      2.333300      1.876500      0.382600
H      0.354300      3.326800      0.164300
H     -1.859300      2.357300     -0.313200
H     -2.467100     -0.981800     -1.457400
H     -3.212000      0.533300     -0.958000
H     -2.930300     -0.731300      0.251000
