14
2-Acetylthiophene
C     -2.291300      0.329100     -0.187700
C     -1.376900     -0.762100      0.319400
O     -1.865100     -1.832100      0.687100
C      0.051200     -0.462100      0.337300
C      0.717100      0.689500     -0.045100
C      2.129800      0.588700      0.126100
C      2.500200     -0.635100      0.633600
S      1.153400     -1.651700      0.900100
H     -2.047200      0.572700     -1.225300
H     -2.203600      1.217400      0.443700
H     -3.328700     -0.017300     -0.151100
H      0.225800      1.573800     -0.432800
H      2.837500      1.374000     -0.110900
H      3.497800     -0.984900      0.862100
