16
2-Acetylpyridine
C     -2.521000     -0.322900      0.891500
C     -1.729500     -0.050300     -0.360200
O     -2.274300      0.106200     -1.451800
C     -0.246600      0.024500     -0.231100
C      0.530500      0.274000     -1.356900
C      1.912400      0.337900     -1.203800
C      2.466700      0.152000      0.058300
C      1.613800     -0.091800      1.123500
N      0.269400     -0.160400      1.010900
H     -3.586900     -0.349600      0.645400
H     -2.242000     -1.293300      1.310300
H     -2.358200      0.474200      1.621700
H      0.071900      0.415400     -2.330700
H      2.549900      0.531100     -2.062300
H      3.540100      0.196100      0.208700
H      2.003800     -0.242900      2.126700
