15
2-Bromobenzoic_acid
O      2.423500      1.431500      0.314600
C      2.076400      0.136300      0.182400
O      2.916700     -0.740600      0.190800
C      0.610200     -0.014800      0.038200
C     -0.225700      0.825400      0.795200
C     -1.614000      0.701700      0.719900
C     -2.180000     -0.261800     -0.110100
C     -1.359300     -1.098600     -0.868100
C      0.035600     -0.980100     -0.798500
Br      1.043800     -2.134800     -1.920300
H      3.401500      1.403500      0.380300
H      0.203000      1.578000      1.454300
H     -2.251400      1.355700      1.310400
H     -3.261400     -0.360900     -0.171300
H     -1.819000     -1.840600     -1.517700
