14
2-Bromobenzaldehyde
O      2.923700     -1.161900     -0.304000
C      2.334500     -0.094400     -0.167100
C      0.859600     -0.027200     -0.060900
C      0.142900     -1.232700     -0.121600
C     -1.249400     -1.234400     -0.027200
C     -1.935800     -0.033100      0.128500
C     -1.231200      1.170400      0.189900
C      0.166500      1.179500      0.095800
Br      1.019100      2.873800      0.191700
H      2.902700      0.846000     -0.120300
H      0.669100     -2.178700     -0.243200
H     -1.795500     -2.173800     -0.075400
H     -3.021100     -0.032600      0.202200
H     -1.785000      2.099100      0.311800
