15
2-Chlorobenzoic_acid
O      2.705600      0.830900     -0.238200
C      2.054000     -0.315800      0.012500
O      2.631700     -1.382600      0.103000
C      0.594400     -0.129400      0.030300
C     -0.163100     -1.003400     -0.764700
C     -1.553000     -0.888200     -0.806200
C     -2.191400      0.091300     -0.048000
C     -1.441900      0.949100      0.760600
C     -0.047100      0.839500      0.808800
Cl      0.793100      1.887100      1.895700
H      3.652100      0.578700     -0.254900
H      0.331500     -1.772700     -1.355200
H     -2.136700     -1.563400     -1.427900
H     -3.275000      0.181900     -0.077300
H     -1.954300      1.697100      1.361600
