19
2-Ethylbutanal
C     -1.680500      1.002900      0.050200
C     -1.160500     -0.185400     -0.749600
C     -0.018800     -0.996800     -0.117900
C      1.402600     -0.491300     -0.417100
C      1.684200      0.969500     -0.105000
C     -0.215000     -1.203300      1.370300
O     -0.654500     -2.243300      1.852500
H     -2.133100      0.679900      0.993000
H     -2.457600      1.520900     -0.521800
H     -0.898700      1.729700      0.277000
H     -2.011300     -0.862300     -0.904600
H     -0.859400      0.153100     -1.748400
H     -0.067700     -2.002300     -0.561000
H      1.616000     -0.657400     -1.480600
H      2.122400     -1.104700      0.140200
H      1.447700      1.215700      0.933800
H      2.746300      1.184500     -0.263600
H      1.119600      1.632800     -0.766300
H      0.018500     -0.342100      2.018800
