11
2-Furaldehyde
O      2.841300      0.659200     -0.104500
C      2.033700     -0.266200     -0.065600
C      0.605200     -0.113700     -0.019100
C     -0.200600      1.007400     -0.005700
C     -1.537000      0.543200      0.045300
C     -1.464500     -0.829700      0.060000
O     -0.169700     -1.239000      0.021200
H      2.390400     -1.310300     -0.064700
H      0.146200      2.032000     -0.030200
H     -2.441200      1.135400      0.068500
H     -2.203700     -1.618400      0.094800
