22
2-Heptanone
C     -3.008400      0.818100     -0.673500
C     -2.109100     -0.161300      0.034900
O     -2.292300     -0.447600      1.217100
C     -1.015000     -0.795800     -0.806700
C      0.059600     -1.509200      0.012800
C      0.940500     -0.588600      0.866500
C      1.785400      0.384400      0.042800
C      2.735400      1.178400      0.926700
H     -3.525700      0.313100     -1.493000
H     -2.413300      1.650200     -1.057700
H     -3.750800      1.210800      0.026800
H     -1.504100     -1.524200     -1.464100
H     -0.567700     -0.026900     -1.443700
H     -0.415000     -2.245100      0.673700
H      0.701900     -2.076600     -0.672000
H      0.324600     -0.028600      1.579300
H      1.608400     -1.221500      1.464500
H      2.366800     -0.166500     -0.705300
H      1.141300      1.087600     -0.495400
H      3.327200      1.871200      0.320300
H      3.426900      0.514800      1.455700
H      2.183400      1.763100      1.669600
