19
2-Hexanone
C      2.955900      0.802400     -0.390500
C      1.723000      0.102300      0.119500
O      1.577200     -0.128600      1.318700
C      0.711900     -0.322200     -0.932800
C     -0.609300     -0.824400     -0.352600
C     -1.469900      0.310500      0.208100
C     -2.788700     -0.212200      0.756200
H      3.605900      1.063900      0.449100
H      2.667900      1.719100     -0.911100
H      3.500200      0.138800     -1.066800
H      0.529900      0.522900     -1.605700
H      1.176400     -1.127000     -1.513900
H     -1.167600     -1.330000     -1.150200
H     -0.422400     -1.571700      0.428000
H     -0.936500      0.836300      1.007400
H     -1.675500      1.044300     -0.580000
H     -3.368200     -0.712700     -0.026100
H     -2.620100     -0.925600      1.569200
H     -3.390100      0.613800      1.148300
