16
2-Methylbutanal
C      1.957400      0.218300     -0.102600
C      0.716600     -0.619400     -0.373300
C     -0.585800      0.185700     -0.296100
C     -0.892700      0.693900      1.108300
C     -1.727700     -0.698500     -0.747800
O     -2.422200     -0.453300     -1.729400
H      2.858100     -0.385500     -0.252800
H      2.008000      1.075900     -0.780800
H      1.974700      0.588400      0.926700
H      0.686600     -1.459600      0.331900
H      0.808400     -1.063100     -1.373000
H     -0.534700      1.038300     -0.984200
H     -0.900100     -0.125100      1.836100
H     -1.879200      1.169900      1.141900
H     -0.156200      1.434800      1.433400
H     -1.911300     -1.600800     -0.138300
