19
2-Methylpentanal
C      2.684700     -0.032400      0.155500
C      1.234400     -0.393100      0.440100
C      0.273100      0.489900     -0.358100
C     -1.204900      0.238600     -0.022900
C     -1.674100     -1.161100     -0.409700
C     -2.040600      1.304100     -0.712100
O     -2.959700      1.076500     -1.492000
H      2.919300     -0.160200     -0.906000
H      3.355500     -0.677100      0.732000
H      2.892500      1.006300      0.431400
H      1.081500     -1.447900      0.188600
H      1.040400     -0.280300      1.512900
H      0.512700      1.543000     -0.159500
H      0.440300      0.338700     -1.432600
H     -1.363500      0.377500      1.053700
H     -1.494500     -1.361000     -1.471800
H     -1.161500     -1.930200      0.175600
H     -2.748700     -1.276500     -0.229600
H     -1.786800      2.345100     -0.444900
