14
2-Methylpropanoic_acid
C     -0.711500      1.284900     -0.278600
C     -0.274500      0.019500      0.450000
C     -0.808100     -1.236900     -0.228000
C      1.229600     -0.035700      0.566700
O      1.865200     -0.039200      1.608400
O      1.864900     -0.083800     -0.618900
H     -0.298700      2.175700      0.207300
H     -1.802900      1.374100     -0.280700
H     -0.370000      1.289500     -1.319500
H     -0.671900      0.055300      1.472100
H     -0.469500     -1.309300     -1.267300
H     -0.463900     -2.136500      0.293800
H     -1.903100     -1.242300     -0.228200
H      2.814400     -0.115400     -0.377300
