17
2-Methylbutanoic_acid
C     -1.210900     -1.559600      1.054300
C      0.164700     -1.127800      0.562100
C      0.126500      0.201100     -0.206100
C      1.474300      0.489500     -0.861100
C     -0.218400      1.357100      0.706100
O      0.079500      1.482200      1.881800
O     -0.907200      2.324900      0.069600
H     -1.627100     -0.840200      1.765800
H     -1.911000     -1.662700      0.219200
H     -1.142300     -2.528600      1.559100
H      0.557400     -1.915900     -0.092100
H      0.845000     -1.057900      1.419700
H     -0.643800      0.131600     -0.984500
H      2.271300      0.568600     -0.113300
H      1.446800      1.435400     -1.413100
H      1.744300     -0.304000     -1.565600
H     -1.049200      3.006200      0.759800
