22
2-Nitrocycloheptanone
O      2.014200     -0.775400     -1.695700
C      1.205500     -0.595600     -0.775700
C      0.145100     -1.651600     -0.523800
C     -1.122200     -1.222800      0.196700
C     -1.850000     -0.040000     -0.438600
C     -1.042100      1.254300     -0.565600
C      0.067600      1.393900      0.473900
C      1.335600      0.631100      0.094700
N      2.079800      0.233100      1.331100
O      3.062300      0.919500      1.639500
O      1.643000     -0.720900      1.988500
H     -0.137100     -2.057000     -1.503800
H      0.620100     -2.464500      0.037200
H     -1.811100     -2.077300      0.213000
H     -0.907800     -1.009900      1.249100
H     -2.228800     -0.322400     -1.428500
H     -2.737300      0.168000      0.173400
H     -1.735200      2.099200     -0.467800
H     -0.620900      1.332500     -1.575700
H      0.331800      2.457300      0.555100
H     -0.309100      1.125600      1.468600
H      1.996800      1.322900     -0.445900
