25
2-Octanone
C     -3.535600      1.083100     -0.425700
C     -3.026200     -0.173200     -1.082000
O     -3.410600     -0.512200     -2.201200
C     -1.993500     -0.981800     -0.326400
C     -0.601700     -0.381000     -0.491500
C      0.453900     -1.225900      0.223800
C      1.885300     -0.730200     -0.000700
C      2.158200      0.641000      0.618700
C      3.619700      1.035800      0.468800
H     -3.918400      0.848600      0.570700
H     -4.351800      1.502300     -1.020900
H     -2.731700      1.819200     -0.357700
H     -2.020300     -2.008400     -0.710200
H     -2.284400     -1.028100      0.728900
H     -0.598000      0.640400     -0.095300
H     -0.357700     -0.305800     -1.558400
H      0.390500     -2.259500     -0.138700
H      0.239000     -1.254900      1.299000
H      2.573100     -1.464000      0.438000
H      2.100100     -0.700900     -1.075900
H      1.897000      0.628300      1.683100
H      1.538800      1.406300      0.139200
H      3.906300      1.084800     -0.586600
H      4.274400      0.315900      0.970200
H      3.793800      2.020200      0.914400
