17
2-Phenylacetaldehyde
O      3.559200     -1.056100     -0.265000
C      2.582400     -0.428200     -0.665900
C      1.779500      0.501300      0.205600
C      0.300000      0.252100      0.071200
C     -0.503300      1.105000     -0.698000
C     -1.869900      0.854900     -0.834100
C     -2.444400     -0.249100     -0.206900
C     -1.653900     -1.104900      0.557400
C     -0.287600     -0.857300      0.695700
H      2.283700     -0.472100     -1.727600
H      2.085700      0.376100      1.250400
H      2.025700      1.528600     -0.084900
H     -0.074700      1.972600     -1.195000
H     -2.488000      1.522300     -1.429300
H     -3.508700     -0.442400     -0.313200
H     -2.101700     -1.966300      1.046600
H      0.316300     -1.536500      1.295300
