30
2-Phenyl-cycloheptanone
O     -0.316600     -1.905000      1.090700
C     -0.708100     -1.205700      0.156900
C     -2.049300     -1.476900     -0.488700
C     -3.193900     -0.810700      0.258200
C     -2.922400      0.579700      0.839200
C     -2.048400      1.501800     -0.012900
C     -0.544700      1.309300      0.230400
C      0.037900      0.021600     -0.372100
C      1.547900     -0.049100     -0.189400
C      2.389900     -0.038700     -1.313500
C      3.778100     -0.083700     -1.166500
C      4.344400     -0.139700      0.104500
C      3.523500     -0.151900      1.229100
C      2.135600     -0.105200      1.083800
H     -2.202600     -2.561200     -0.534900
H     -2.021700     -1.135400     -1.529500
H     -4.052700     -0.750600     -0.422400
H     -3.513500     -1.462800      1.081100
H     -2.481300      0.474700      1.838500
H     -3.894300      1.065200      0.996000
H     -2.289100      2.535800      0.265900
H     -2.290500      1.403700     -1.077300
H     -0.019900      2.169000     -0.207900
H     -0.351100      1.354400      1.309800
H     -0.148500      0.046300     -1.454600
H      1.974100      0.006700     -2.317500
H      4.417800     -0.076500     -2.045000
H      5.424200     -0.178900      0.219100
H      3.961300     -0.204800      2.222400
H      1.514000     -0.131600      1.977000
