27
2-Phenyl-3-(phenylamino)isoindolin-1-one
O      0.643900      1.961100     -1.277100
C      0.723700      0.936200     -0.624600
C      2.020400      0.344200     -0.271700
C      3.292500      0.790100     -0.580800
C      4.369500      0.032600     -0.118200
C      4.150400     -1.137000      0.632500
C      2.852600     -1.567100      0.932100
C      1.791200     -0.809100      0.468800
C      0.324900     -1.019100      0.631100
N     -0.265300      0.109500     -0.077900
C     -1.672500      0.294300     -0.168700
C     -2.232500      1.381400     -0.851600
C     -3.619800      1.551800     -0.933700
C     -4.475200      0.635500     -0.332500
C     -3.942600     -0.451400      0.350900
C     -2.555100     -0.619600      0.431600
H      3.439700      1.694900     -1.161200
H      5.386600      0.348600     -0.339500
H      5.004100     -1.713400      0.983900
H      2.692200     -2.470700      1.511900
H      0.043300     -0.981100      1.688200
H      0.013900     -1.956800      0.159500
H     -1.612100      2.127100     -1.339400
H     -4.024700      2.405800     -1.470900
H     -5.551500      0.769400     -0.397200
H     -4.604900     -1.172000      0.823600
H     -2.193000     -1.485200      0.977000
