13
2-Pyridinecarboxaldehyde
O      2.985900     -0.977300     -0.349800
C      2.366000      0.000700      0.053100
C      0.889600      0.069500      0.049500
C      0.136000     -0.997500     -0.422000
C     -1.249800     -0.876700     -0.401400
C     -1.824400      0.294200      0.084600
C     -0.987300      1.304900      0.534000
N      0.361000      1.222900      0.529100
H      2.881000      0.893400      0.445000
H      0.614800     -1.897300     -0.794700
H     -1.876000     -1.688700     -0.761400
H     -2.902100      0.416700      0.112800
H     -1.394700      2.235200      0.921200
