11
2-Thiophenecarboxaldehyde
O      2.828100     -1.236000      0.303300
C      2.128200     -0.233300      0.180700
C      0.686300     -0.195800      0.066500
C     -0.125300      0.913500     -0.072000
C     -1.505800      0.565000     -0.155200
C     -1.698400     -0.796200     -0.077300
S     -0.222700     -1.643500      0.094800
H      2.613700      0.757900      0.150800
H      0.246200      1.930800     -0.112600
H     -2.316300      1.275400     -0.266400
H     -2.634000     -1.337800     -0.112800
