15
2_3-Pentanedione
C     -2.583600     -0.055900      0.664200
C     -1.419500      0.147800     -0.259400
O     -1.530800      0.469000     -1.435800
C     -0.035600     -0.066300      0.336200
O      0.061500     -0.387300      1.514000
C      1.129600      0.141900     -0.603900
C      2.465400     -0.093800      0.078900
H     -3.515000      0.126700      0.120500
H     -2.523200      0.647500      1.498400
H     -2.590400     -1.085100      1.031600
H      1.091800      1.168900     -0.981600
H      1.025200     -0.551300     -1.445100
H      2.601800      0.590600      0.922900
H      2.535700     -1.117000      0.462900
H      3.287200      0.064300     -0.626200
