12
2_3-Butanedione
C     -1.940400      0.027900     -0.277000
C     -0.619200     -0.189900      0.398300
O     -0.496500     -0.646100      1.527900
C      0.619200      0.189900     -0.398300
C      1.940400     -0.027900      0.277000
O      0.496500      0.646100     -1.527900
H     -2.067900      1.088000     -0.509800
H     -2.746800     -0.281700      0.393900
H     -1.994900     -0.572600     -1.188400
H      2.067900     -1.088000      0.509800
H      2.746800      0.281600     -0.394000
H      1.995000      0.572700      1.188400
