20
2_5-Dimethylbenzaldehyde
C     -3.091000      0.136000     -0.136800
C     -1.608900     -0.080500     -0.054400
C     -1.076100     -1.369300     -0.130500
C      0.305800     -1.569400     -0.085200
C      1.192500     -0.486000      0.026900
C      2.669500     -0.762200      0.071600
C      0.656600      0.813100      0.087600
C      1.491700      2.038400      0.197800
O      2.714300      2.038700      0.243100
C     -0.734400      1.008700      0.041900
H     -3.634900     -0.716800      0.282800
H     -3.392200      0.268800     -1.180500
H     -3.388100      1.022400      0.433500
H     -1.733200     -2.231700     -0.224900
H      0.688400     -2.587200     -0.141100
H      3.172900     -0.294500     -0.780200
H      2.877600     -1.836600      0.018400
H      3.099500     -0.398400      1.010000
H      0.937300      2.991500      0.238500
H     -1.147200      2.014900      0.081600
