17
3-(Trifluoromethyl)phenyl_isocyanate
F     -3.342400      0.351100      0.632400
C     -2.489600     -0.537100      0.050300
F     -3.035900     -0.845900     -1.157200
F     -2.567600     -1.672100      0.799200
C     -1.081400     -0.011200     -0.076000
C     -0.839500      1.364300     -0.207600
C      0.461900      1.842300     -0.360800
C      1.534800      0.950300     -0.382600
C      1.321000     -0.426300     -0.237300
N      2.393600     -1.330000     -0.296100
C      2.893000     -1.485600      0.755800
O      3.396000     -1.643100      1.807000
C      0.008000     -0.898300     -0.107000
H     -1.669300      2.070600     -0.198300
H      0.640800      2.909500     -0.471400
H      2.543900      1.332600     -0.519700
H     -0.167300     -1.971100     -0.030700
