16
3-Acetylpyridine
C      2.409500      0.793200     -0.277700
C      1.608100     -0.480100     -0.345200
O      2.156200     -1.575200     -0.445900
C      0.126500     -0.399400     -0.288100
C     -0.573300      0.803900     -0.174100
C     -1.967300      0.783700     -0.127500
C     -2.614200     -0.439900     -0.196600
N     -1.969400     -1.620100     -0.307000
C     -0.613700     -1.574700     -0.350400
H      3.475300      0.550300     -0.332600
H      2.165200      1.439800     -1.124500
H      2.227100      1.305800      0.670300
H     -0.063600      1.760500     -0.120200
H     -2.537600      1.702300     -0.039200
H     -3.698400     -0.505100     -0.164100
H     -0.130200     -2.545100     -0.439600
