15
3-Chlorobenzoic_acid
O      2.862600      0.519100     -0.059600
C      2.046300     -0.537800      0.094000
O      2.487300     -1.658800      0.265400
C      0.611600     -0.171400      0.029700
C      0.190300      1.150300     -0.171700
C     -1.172500      1.450900     -0.225700
C     -2.116100      0.433700     -0.078800
C     -1.694700     -0.880700      0.121500
Cl     -2.863500     -2.130600      0.301900
C     -0.337400     -1.190200      0.176700
H      3.761700      0.133000      0.004200
H      0.915800      1.952600     -0.287600
H     -1.497800      2.476800     -0.382000
H     -3.176200      0.671000     -0.121300
H     -0.017300     -2.218000      0.333300
