14
3-Fluorobenzaldehyde
O      3.082100      0.814000     -0.056900
C      2.353200     -0.167200      0.016200
C      0.881800     -0.051900      0.005200
C      0.274600      1.206100     -0.090800
C     -1.118200      1.308100     -0.100600
C     -1.897500      0.154800     -0.014500
C     -1.279300     -1.088800      0.080400
F     -2.032600     -2.193100      0.162800
C      0.105700     -1.208100      0.091500
H      2.768400     -1.186100      0.093800
H      0.884200      2.105800     -0.157900
H     -1.592000      2.284000     -0.175100
H     -2.981600      0.216600     -0.020800
H      0.551200     -2.194300      0.166700
