19
3-Hexanone
C      3.217500     -0.176200      0.055200
C      1.833500     -0.788500     -0.063400
C      0.730200      0.256300     -0.098800
O      0.966100      1.461800     -0.036000
C     -0.684400     -0.289400     -0.216900
C     -1.738300      0.813700     -0.246600
C     -3.141300      0.241000     -0.365100
H      3.980600     -0.960200      0.077300
H      3.429500      0.483900     -0.792400
H      3.308400      0.415700      0.972000
H      1.773100     -1.379900     -0.982900
H      1.651400     -1.448500      0.791100
H     -0.861900     -0.951600      0.637800
H     -0.740100     -0.883000     -1.136200
H     -1.550500      1.488000     -1.090700
H     -1.671000      1.420200      0.664400
H     -3.372100     -0.410200      0.484100
H     -3.250700     -0.341800     -1.285200
H     -3.879900      1.048400     -0.384600
