18
3-Methoxybenzaldehyde
C      3.082700     -0.283100      0.295400
O      1.913100     -0.912400     -0.214300
C      0.727200     -0.255800     -0.032300
C      0.559500      0.974700      0.607400
C     -0.714600      1.539800      0.727200
C     -1.826300      0.878200      0.208500
C     -1.658900     -0.351300     -0.430800
C     -2.824600     -1.066000     -0.986000
O     -3.961500     -0.617000     -0.909000
C     -0.388100     -0.918500     -0.552100
H      3.028000     -0.170800      1.383300
H      3.935600     -0.930500      0.070000
H      3.257300      0.680600     -0.194200
H      1.399000      1.521700      1.024700
H     -0.839500      2.498100      1.226200
H     -2.816300      1.319800      0.302800
H     -2.622200     -2.032200     -1.478000
H     -0.250400     -1.875500     -1.048700
