19
3-Methoxybenzoic_acid
C      3.253400     -0.689500      0.501600
O      1.915400     -1.040500      0.831400
C      0.919100     -0.312800      0.241400
C      1.095300      0.742900     -0.654800
C     -0.013800      1.406600     -1.187800
C     -1.304800      1.018600     -0.828100
C     -1.489700     -0.038400      0.069400
C     -2.838600     -0.490800      0.485100
O     -3.083500     -1.398400      1.257900
O     -3.826800      0.218400     -0.089400
C     -0.375300     -0.699300      0.600000
H      3.920300     -1.360300      1.051700
H      3.480700      0.335400      0.813200
H      3.446400     -0.830500     -0.567000
H      2.082400      1.075000     -0.959800
H      0.129800      2.228300     -1.885600
H     -2.156700      1.544900     -1.251500
H     -4.642400     -0.186900      0.273200
H     -0.511200     -1.522700      1.299000
