17
3-Methylbutanoic_acid
C     -0.927100      0.201700      1.334800
C     -0.599900      0.311200     -0.156600
C     -1.745800     -0.277300     -0.981800
C      0.716100     -0.404600     -0.497500
C      1.929700      0.316600      0.029400
O      2.002400      1.472200      0.409100
O      3.025400     -0.468300      0.015800
H     -0.144500      0.657300      1.949300
H     -1.866800      0.716200      1.563100
H     -1.032800     -0.844200      1.642800
H     -0.512800      1.375200     -0.410600
H     -1.550500     -0.166000     -2.053600
H     -1.881700     -1.343500     -0.770600
H     -2.688100      0.235100     -0.760300
H      0.703900     -1.421300     -0.087200
H      0.836200     -0.473100     -1.585000
H      3.736300      0.112900      0.358900
