19
3-Methylpentanal
C      2.411100     -0.337900     -0.197100
C      1.187500      0.528300     -0.461300
C     -0.102300     -0.002800      0.194100
C     -0.497800     -1.375900     -0.361000
C     -1.237300      1.012100     -0.017800
C     -2.422600      0.707300      0.862500
O     -3.566800      0.591400      0.435100
H      2.556000     -0.497400      0.876000
H      2.327900     -1.312600     -0.686300
H      3.308000      0.151500     -0.590500
H      1.396800      1.534300     -0.076600
H      1.045600      0.628500     -1.544400
H      0.075700     -0.113700      1.271900
H     -1.436500     -1.726800      0.080100
H     -0.627900     -1.340900     -1.447900
H      0.261600     -2.130100     -0.133300
H     -0.904400      2.021700      0.249000
H     -1.561400      1.030000     -1.064300
H     -2.213100      0.632900      1.943400
