17
3-Nitrobenzoic_acid
O      3.138900      0.372400      0.986800
C      2.250700      0.876600      0.113700
O      2.546400      1.782700     -0.641900
C      0.926500      0.213200      0.190700
C      0.670600     -0.827900      1.094900
C     -0.589300     -1.430300      1.140000
C     -1.602000     -0.997600      0.283100
C     -1.346000      0.043200     -0.620800
N     -2.412000      0.498400     -1.522600
O     -3.511900     -0.067000     -1.444700
O     -2.149000      1.419900     -2.307200
C     -0.085400      0.652600     -0.672500
H      3.952700      0.896000      0.826700
H      1.448700     -1.178200      1.770700
H     -0.779800     -2.237600      1.844600
H     -2.577800     -1.477900      0.331400
H      0.118700      1.461600     -1.372900
