25
3-Octanone
C     -3.758900      0.722300      0.537600
C     -2.472700      0.764200     -0.273000
C     -1.672900     -0.531300     -0.118500
C     -0.408600     -0.545300     -0.972400
C      0.633300      0.440000     -0.479900
O      0.762100      1.545400     -1.008200
C      1.512800      0.021800      0.682200
C      2.681100     -0.852500      0.240300
C      3.710500     -0.088500     -0.580100
H     -3.546600      0.591400      1.603500
H     -4.315000      1.656900      0.414300
H     -4.402100     -0.101100      0.211100
H     -2.719000      0.926500     -1.328700
H     -1.874600      1.620700      0.057300
H     -1.420800     -0.681300      0.937600
H     -2.302600     -1.377700     -0.419100
H     -0.641300     -0.311800     -2.017800
H      0.034200     -1.547000     -0.969200
H      1.871200      0.925100      1.189200
H      0.895000     -0.517500      1.407900
H      2.323800     -1.709300     -0.341600
H      3.175700     -1.254800      1.132100
H      4.094700      0.772900     -0.024600
H      3.284000      0.270200     -1.521800
H      4.556500     -0.739400     -0.822700
