21
3-Phenylpropanoic_acid
O      2.726500      0.703800      2.101700
C      2.434100      0.090700      0.937600
O      2.904500      0.498900     -0.110800
C      1.564700     -1.120200      1.136200
C      0.711300     -1.424500     -0.092200
C     -0.437900     -0.458600     -0.259300
C     -0.326800      0.636700     -1.125800
C     -1.383200      1.537800     -1.266500
C     -2.559100      1.354100     -0.541800
C     -2.679300      0.269800      0.325300
C     -1.623600     -0.632200      0.467700
H      3.293600      1.457900      1.836700
H      2.232900     -1.964300      1.340000
H      0.929100     -0.968800      2.016200
H      1.323500     -1.434900     -1.002700
H      0.299000     -2.437700     -0.000600
H      0.587200      0.797300     -1.695200
H     -1.286600      2.383900     -1.941700
H     -3.381100      2.056200     -0.652500
H     -3.595900      0.126500      0.891300
H     -1.732900     -1.472500      1.149500
