13
3-Pyridinecarboxaldehyde
O      2.986100     -0.762600      0.207300
C      2.208600      0.168800      0.044200
C      0.752800     -0.027700      0.027800
C     -0.107100      1.053200     -0.160100
C     -1.481800      0.826400     -0.169500
C     -1.938400     -0.471500      0.009300
N     -1.125200     -1.535200      0.193100
C      0.208500     -1.291500      0.198700
H      2.569800      1.201100     -0.098000
H      0.274400      2.060600     -0.298100
H     -2.183600      1.641100     -0.312800
H     -3.001600     -0.697000      0.009400
H      0.837500     -2.165600      0.348600
