19
3_3-Dimethyl-2-butanone
C      2.157300      0.000200     -0.522200
C      0.769000     -0.484300     -0.868000
O      0.600000     -1.191500     -1.864200
C     -0.405000     -0.053100      0.032300
C     -0.741600      1.414200     -0.260700
C     -0.047700     -0.228300      1.513900
C     -1.635700     -0.921900     -0.280200
H      2.837700     -0.231200     -1.347300
H      2.159500      1.081900     -0.375100
H      2.516000     -0.507600      0.375800
H     -1.621000      1.740200      0.306000
H      0.086700      2.080000      0.004500
H     -0.951100      1.565900     -1.325800
H     -0.907300     -0.010300      2.157900
H      0.763600      0.442200      1.817700
H      0.278400     -1.253800      1.722000
H     -2.486900     -0.650000      0.354100
H     -1.420800     -1.984400     -0.116800
H     -1.951200     -0.808300     -1.323900
