22
3_4-Dimethoxybenzaldehyde
C     -2.634800     -2.174200      0.251800
O     -2.143300     -0.842000      0.269900
C     -0.798000     -0.652300      0.073300
C      0.121700     -1.686000     -0.144000
C      1.475500     -1.399200     -0.335000
C      1.910000     -0.074300     -0.308600
C      3.343000      0.219900     -0.511500
O      3.781100      1.363300     -0.498600
C      1.004200      0.968700     -0.092900
C     -0.352100      0.687100      0.098900
O     -1.317300      1.639100      0.317500
C     -0.906800      2.999200      0.350200
H     -2.470400     -2.642700     -0.724100
H     -2.192200     -2.769500      1.057200
H     -3.714800     -2.134800      0.423300
H     -0.185900     -2.726300     -0.170000
H      2.173900     -2.215300     -0.502200
H      4.005900     -0.646000     -0.676700
H      1.382600      1.986200     -0.079600
H     -0.482800      3.307100     -0.611300
H     -1.795000      3.611900      0.532500
H     -0.204500      3.180300      1.170400
