21
3_5-Dimethylbenzoic_acid
C     -0.466800      2.825000      0.313900
C     -0.265200      1.363100      0.042400
C     -1.360200      0.539600     -0.253900
C     -1.191100     -0.834500     -0.471300
C     -2.365100     -1.697700     -0.828700
C      0.096000     -1.382100     -0.404200
C      1.197200     -0.573900     -0.094200
C      2.534900     -1.210000     -0.020700
O      2.776800     -2.388500     -0.207300
O      3.514200     -0.339700      0.284300
C      1.012200      0.795200      0.135800
H      0.417200      3.402000      0.022800
H     -0.658700      2.984400      1.379400
H     -1.312900      3.216100     -0.260900
H     -2.357000      0.973900     -0.316200
H     -3.282000     -1.322900     -0.361800
H     -2.217600     -2.723700     -0.475600
H     -2.501200     -1.712900     -1.914400
H      0.243900     -2.445100     -0.589100
H      4.322000     -0.894400      0.296400
H      1.863200      1.425900      0.383700
