16
4-Acetylpyridine
C      2.423900      0.646600     -0.053100
C      1.489300     -0.533900     -0.094700
O      1.917100     -1.682500     -0.188200
C      0.019000     -0.296300     -0.020500
C     -0.834000     -1.401200     -0.060300
C     -2.196600     -1.179100      0.008600
N     -2.748300      0.048300      0.112300
C     -1.903400      1.099500      0.148800
C     -0.525000      0.983500      0.086400
H      2.239700      1.306000     -0.905100
H      3.456600      0.289600     -0.117900
H      2.310900      1.186300      0.890700
H     -0.448500     -2.412700     -0.143000
H     -2.901400     -2.005400     -0.018500
H     -2.381500      2.072000      0.232500
H      0.082200      1.879400      0.122000
