20
4-Acetylmorpholine
C      2.672900     -0.286000     -0.460100
C      1.441000     -1.085600     -0.120100
O      1.511700     -2.307400      0.012200
N      0.249500     -0.384500      0.012100
C      0.182400      1.067800      0.206000
C     -1.183800      1.631500     -0.197100
O     -2.249300      0.933000      0.460000
C     -2.230000     -0.455600      0.096700
C     -0.915500     -1.117600      0.514800
H      2.523500      0.258800     -1.396000
H      3.519800     -0.966000     -0.594800
H      2.913900      0.402600      0.353900
H      0.968800      1.576300     -0.356900
H      0.360700      1.245300      1.273400
H     -1.330300      1.566200     -1.281900
H     -1.250000      2.686800      0.085400
H     -2.387600     -0.542700     -0.984900
H     -3.071400     -0.944700      0.597400
H     -0.895000     -2.157000      0.171200
H     -0.831200     -1.121100      1.608400
