14
4-Bromobenzaldehyde
O     -3.129000     -0.803200      0.020800
C     -2.396800      0.162200     -0.155700
C     -0.926600      0.060100     -0.059600
C     -0.144400      1.199500     -0.272000
C      1.247100      1.108400     -0.182300
C      1.844400     -0.117100      0.118100
Br      3.727300     -0.235500      0.238400
C      1.065300     -1.254500      0.330200
C     -0.325600     -1.166400      0.241200
H     -2.807400      1.157200     -0.395800
H     -0.601400      2.157600     -0.506300
H      1.855900      1.994100     -0.347300
H      1.527700     -2.210200      0.564300
H     -0.936500     -2.052100      0.406100
