14
4-Chlorobenzaldehyde
O     -3.144600     -0.640900      0.252400
C     -2.376400      0.296700      0.079300
C     -0.912000      0.111500      0.030800
C     -0.085900      1.221800     -0.169900
C      1.300500      1.050900     -0.216500
C      1.850100     -0.223100     -0.062900
Cl      3.557100     -0.427300     -0.121100
C      1.026400     -1.330800      0.137300
C     -0.359600     -1.164500      0.184500
H     -2.748100      1.327200     -0.048700
H     -0.504300      2.217800     -0.290500
H      1.946500      1.911400     -0.372300
H      1.454400     -2.322900      0.256900
H     -1.004200     -2.027600      0.340600
