21
4-Ethylbenzoic_acid
C     -3.060800      0.365700      0.746500
C     -2.432500      0.225900     -0.631600
C     -0.931300      0.106100     -0.553800
C     -0.325300     -1.151000     -0.426300
C      1.065100     -1.263200     -0.337800
C      1.865000     -0.115500     -0.371200
C      3.343300     -0.182600     -0.280200
O      4.103900      0.767600     -0.300500
O      3.804700     -1.441100     -0.167500
C      1.264100      1.142700     -0.491700
C     -0.125900      1.252300     -0.580100
H     -2.691000      1.257900      1.263100
H     -2.837300     -0.503000      1.375000
H     -4.148600      0.450600      0.659500
H     -2.846700     -0.653000     -1.140600
H     -2.701900      1.089800     -1.251400
H     -0.933500     -2.052700     -0.394300
H      1.512500     -2.249300     -0.241600
H      4.777000     -1.328600     -0.118500
H      1.875600      2.042600     -0.515800
H     -0.576200      2.238800     -0.668800
