20
4-Methylacetophenone
C     -3.350500     -0.458400      0.179100
C     -2.376000      0.659100     -0.086600
O     -2.769200      1.789500     -0.368400
C     -0.911800      0.376800     -0.003400
C     -0.015000      1.425300     -0.243900
C      1.363600      1.208000     -0.177400
C      1.866000     -0.058200      0.140700
C      3.346400     -0.299800      0.179100
C      0.969300     -1.109100      0.366100
C     -0.411700     -0.894300      0.300200
H     -3.221900     -1.256200     -0.557000
H     -3.223100     -0.839300      1.195700
H     -4.371300     -0.074100      0.087700
H     -0.385800      2.419500     -0.487700
H      2.040900      2.036400     -0.375300
H      3.703200     -0.593500     -0.812800
H      3.881200      0.601900      0.495600
H      3.594300     -1.091600      0.893800
H      1.342000     -2.105400      0.596200
H     -1.070600     -1.736700      0.487000
