21
4-Methoxyacetophenone
C      3.509000     -0.434400      0.448500
C      2.672600      0.129100     -0.670500
O      3.194100      0.563300     -1.695600
C      1.186900      0.155100     -0.520500
C      0.418800      0.680500     -1.565600
C     -0.974300      0.722700     -1.463900
C     -1.620000      0.243300     -0.322600
O     -2.982800      0.343700     -0.352500
C     -3.690800     -0.130400      0.785800
C     -0.857200     -0.281100      0.721300
C      0.540900     -0.325800      0.624200
H      3.365400      0.150500      1.360600
H      3.261300     -1.485900      0.614500
H      4.566300     -0.375300      0.171400
H      0.898400      1.060500     -2.465900
H     -1.560000      1.133500     -2.283200
H     -4.758900      0.021200      0.602300
H     -3.527100     -1.202900      0.933800
H     -3.422800      0.438400      1.682300
H     -1.317800     -0.664500      1.626200
H      1.098000     -0.741700      1.458600
