19
4-Methyl-2-pentanone
C      2.510100     -0.296400      0.198100
C      1.458200     -0.511600     -0.858300
O      1.712700     -0.357400     -2.053000
C      0.068700     -0.903100     -0.394100
C     -0.672200      0.243500      0.304000
C     -0.979300      1.386800     -0.665400
C     -1.970300     -0.275200      0.924900
H      2.509700     -1.136500      0.897100
H      2.317100      0.637600      0.729900
H      3.495300     -0.241400     -0.273400
H     -0.497300     -1.257800     -1.264200
H      0.178100     -1.762700      0.278100
H     -0.049300      0.643400      1.113100
H     -1.589300      1.041700     -1.507100
H     -0.059400      1.822300     -1.068400
H     -1.527200      2.188200     -0.158000
H     -1.763900     -1.066500      1.653200
H     -2.641600     -0.683100      0.161500
H     -2.500100      0.528400      1.447500
