17
4-Nitrobenzoic_acid
O     -3.193600      1.058400      0.092700
C     -2.614200     -0.148400     -0.025100
O     -3.275800     -1.164000     -0.128800
C     -1.132100     -0.077400     -0.012200
C     -0.409800     -1.274100     -0.128400
C      0.988800     -1.259400     -0.121400
C      1.665600     -0.038400      0.002700
N      3.134400     -0.017100      0.010700
O      3.693500      1.083100      0.122400
O      3.726800     -1.100200     -0.094800
C      0.952400      1.162900      0.119500
C     -0.446600      1.139600      0.111700
H     -4.154600      0.863800      0.069600
H     -0.935600     -2.223400     -0.225000
H      1.528700     -2.200200     -0.212900
H      1.465000      2.118300      0.216600
H     -0.992900      2.076600      0.202700
