13
4-Pyridinecarboxaldehyde
O      2.909400      0.492900     -0.226400
C      2.073700     -0.402000     -0.213900
C      0.633600     -0.122100     -0.065300
C      0.187900      1.190500      0.066100
C     -1.171600      1.393200      0.202100
N     -2.079500      0.392100      0.213700
C     -1.612100     -0.868500      0.084000
C     -0.272100     -1.179300     -0.057800
H      2.364800     -1.461200     -0.313800
H      0.877700      2.027800      0.062600
H     -1.582000      2.393600      0.308600
H     -2.371700     -1.645500      0.097900
H      0.041900     -2.211500     -0.157900
