27
4-tert-Butylbenzoic_acid
O      4.608200      1.146500      0.550200
C      4.067500     -0.074900      0.391700
O      4.763300     -1.073300      0.363500
C      2.591100     -0.040000      0.263300
C      1.867800      1.152500      0.306600
C      0.474000      1.132100      0.180600
C     -0.235100     -0.073900      0.008400
C     -1.768700     -0.054200     -0.126400
C     -2.393400      0.564800      1.142600
C     -2.398000     -1.453900     -0.308900
C     -2.170900      0.790400     -1.354700
C      0.514300     -1.261800     -0.032100
C      1.909100     -1.246700      0.093500
H      5.569300      0.967900      0.619700
H      2.374000      2.105700      0.437800
H     -0.054200      2.082900      0.219400
H     -2.101400      0.005200      2.039200
H     -2.086300      1.606000      1.290500
H     -3.488300      0.558900      1.087500
H     -2.028800     -1.947300     -1.215600
H     -2.185800     -2.106400      0.546000
H     -3.488900     -1.387700     -0.400100
H     -1.717500      0.394600     -2.271200
H     -3.258300      0.792100     -1.494300
H     -1.859200      1.836300     -1.258900
H      0.037600     -2.229900     -0.162000
H      2.458500     -2.185800      0.057700
