17
4-Trifluoromethylbenzaldehyde
O     -3.623200      0.926500     -1.004100
C     -3.064000      0.243600     -0.155400
C     -1.593500      0.126400     -0.086300
C     -0.790800      0.806700     -1.005300
C      0.599400      0.691100     -0.932900
C      1.198000     -0.109900      0.053300
C      2.702400     -0.217300      0.146500
F      3.119700     -1.423700      0.622400
F      3.235500      0.718300      0.978700
F      3.327000     -0.054700     -1.052600
C      0.377200     -0.781000      0.976000
C     -1.014200     -0.667400      0.906300
H     -3.639500     -0.317800      0.599600
H     -1.244200      1.427600     -1.776300
H      1.215700      1.229000     -1.652800
H      0.824200     -1.398900      1.754600
H     -1.629500     -1.198500      1.628600
