14
5-Methyl-2-furaldehyde
C      2.281500      0.565900      0.007500
C      0.914500      0.025400      0.143900
C      0.384300     -1.058700      0.808900
C     -1.007400     -1.041500      0.550700
C     -1.244800      0.052400     -0.256800
C     -2.453800      0.572100     -0.834300
O     -3.572400      0.083900     -0.690500
O     -0.071000      0.705800     -0.506500
H      2.329500      1.587900      0.395700
H      2.584100      0.580300     -1.044100
H      3.002000     -0.043700      0.561500
H      0.933600     -1.773500      1.406200
H     -1.756900     -1.736700      0.904700
H     -2.323100      1.480400     -1.446900
