28
6-(Phenylamino)piperidin-2-one
O      0.415400      1.616200      2.591100
C      1.084100      1.060800      1.717400
C      2.443400      1.627200      1.345800
C      2.980200      1.170300     -0.000400
C      2.882900     -0.341700     -0.107000
C      1.421800     -0.748700     -0.031900
N      0.723200     -0.125100      1.087700
N     -0.494900     -0.724100      1.485200
C     -1.581400     -0.608400      0.587300
C     -2.555000     -1.617700      0.563400
C     -3.668200     -1.525900     -0.277200
C     -3.837600     -0.407700     -1.089100
C     -2.902400      0.622800     -1.048900
C     -1.790000      0.526700     -0.207700
H      2.369700      2.720600      1.348200
H      3.140200      1.337100      2.141400
H      4.022300      1.489700     -0.110900
H      2.408600      1.639400     -0.810600
H      3.447200     -0.809800      0.708800
H      3.320300     -0.689100     -1.049100
H      1.341500     -1.837700      0.060700
H      0.910400     -0.446800     -0.953100
H     -0.372500     -1.657900      1.868400
H     -2.455100     -2.490600      1.203100
H     -4.407400     -2.322400     -0.287800
H     -4.706500     -0.330100     -1.737100
H     -3.043800      1.511500     -1.658100
H     -1.096300      1.361400     -0.163400
