25
9-Anthracenone
O     -0.028700     -2.719700     -0.162900
C     -0.015800     -1.496900     -0.065100
C      1.268300     -0.760700     -0.016300
C      2.469700     -1.479200     -0.083200
C      3.691200     -0.808400     -0.039000
C      3.715900      0.579500      0.071900
C      2.520400      1.297400      0.138700
C      1.282300      0.634500      0.095300
C      0.015200      1.443400      0.170000
C     -1.268600      0.659700      0.117500
C     -2.492500      1.346900      0.182200
C     -3.702900      0.652700      0.136300
C     -3.707500     -0.735400      0.025200
C     -2.500400     -1.430100     -0.040000
C     -1.284100     -0.735600      0.005900
H      2.454700     -2.564000     -0.169900
H      4.620600     -1.369800     -0.091200
H      4.667900      1.103900      0.106400
H      2.559600      2.381700      0.225200
H      0.029000      2.012000      1.108700
H      0.015000      2.154000     -0.666500
H     -2.508700      2.431700      0.269200
H     -4.643700      1.195700      0.187200
H     -4.648600     -1.278300     -0.010800
H     -2.508300     -2.515000     -0.126800
