12
Acetic_acid_vinyl_ester
C     -2.160800     -0.133200      0.431300
C     -0.770500      0.253000      0.018700
O     -0.527000      1.160700     -0.763800
O      0.122400     -0.568100      0.657600
C      1.517200     -0.497200      0.511400
C      2.242600      0.337300     -0.239100
H     -2.882300      0.516100     -0.073000
H     -2.275800     -0.007800      1.510900
H     -2.360700     -1.167300      0.139500
H      1.965000     -1.265000      1.132800
H      3.325300      0.264200     -0.244300
H      1.804400      1.107400     -0.863100
