14
Acetyl_peroxide
C      2.785400     -0.053300     -0.299200
C      1.451300     -0.135000      0.376900
O      1.116300     -1.031300      1.140900
O      0.683800      0.936800      0.010700
O     -0.619200      0.768700      0.661400
C     -1.449300      0.186800     -0.257500
C     -2.789800     -0.063300      0.362300
O     -1.158800     -0.091400     -1.414000
H      3.303600      0.857200      0.011700
H      2.652800     -0.070400     -1.383900
H      3.391800     -0.916200     -0.009300
H     -2.683400     -0.737200      1.216100
H     -3.446800     -0.535500     -0.373700
H     -3.237700      0.884100      0.672300
