20
Adipic_acid
O      2.638500      1.545000      0.758700
C      2.734900      0.287900      0.287800
O      3.793900     -0.144200     -0.134200
C      1.428500     -0.451100      0.333900
C      0.550300     -0.062300     -0.850300
C     -0.720700     -0.910600     -0.972700
C     -1.704800     -0.765400      0.188200
C     -2.333600      0.600900      0.256400
O     -2.403700      1.429700     -0.634000
O     -2.885200      0.841500      1.461900
H      3.542300      1.909500      0.653600
H      1.649000     -1.524600      0.321600
H      0.943700     -0.238000      1.292500
H      1.128000     -0.177000     -1.776700
H      0.293100      1.001700     -0.788200
H     -0.435100     -1.966200     -1.060300
H     -1.224000     -0.645900     -1.911100
H     -1.208200     -0.981700      1.139000
H     -2.518300     -1.488800      0.061300
H     -3.268500      1.739500      1.372600
