26
Benzil
O      0.050900     -0.706100      1.613400
C      0.490700     -0.231800      0.569700
C      1.980700     -0.137300      0.424200
C      2.646700      0.375000     -0.694900
C      4.046300      0.421000     -0.735700
C      4.799300     -0.043200      0.339100
C      4.156200     -0.555800      1.459900
C      2.759900     -0.602100      1.501300
C     -0.490700      0.231800     -0.513700
O     -0.050900      0.706000     -1.557400
C     -1.980700      0.137200     -0.368100
C     -2.760000      0.602000     -1.445300
C     -4.156200      0.555700     -1.403900
C     -4.799300      0.043200     -0.283000
C     -4.046300     -0.421000      0.791800
C     -2.646700     -0.374900      0.751000
H      2.121200      0.752500     -1.564900
H      4.546400      0.822800     -1.614300
H      5.885100     -0.004900      0.301800
H      4.736600     -0.920500      2.303800
H      2.282400     -1.008700      2.391900
H     -2.282400      1.008600     -2.335900
H     -4.736600      0.920400     -2.247800
H     -5.885100      0.005000     -0.245700
H     -4.546400     -0.822600      1.670500
H     -2.121200     -0.752300      1.621100
