20
Benzyl_methyl_ketone
C      3.430500     -0.145100     -0.444900
C      1.938700     -0.317900     -0.583300
O      1.473100     -0.992800     -1.500400
C      1.096200      0.386500      0.467100
C     -0.392400      0.201800      0.311500
C     -1.044400     -0.875000      0.928600
C     -2.421700     -1.046900      0.780900
C     -3.159200     -0.149400      0.011300
C     -2.519600      0.918300     -0.615400
C     -1.142400      1.092400     -0.469300
H      3.757800     -0.545300      0.517900
H      3.685000      0.914900     -0.519800
H      3.941300     -0.688200     -1.244900
H      1.405700      0.020800      1.453600
H      1.334200      1.456500      0.433500
H     -0.483200     -1.592500      1.522600
H     -2.918200     -1.886500      1.260100
H     -4.230400     -0.287400     -0.107900
H     -3.092500      1.611700     -1.225400
H     -0.658400      1.924100     -0.975900
