14
Benzoyl_fluoride
O      2.896700      1.310300      0.327400
C      2.317700      0.246000      0.184800
F      3.065400     -0.865400      0.130000
C      0.854100      0.100800      0.069100
C      0.033400      1.232300      0.120800
C     -1.350100      1.088500      0.010800
C     -1.908900     -0.180300     -0.150100
C     -1.088500     -1.308600     -0.201500
C      0.296100     -1.171300     -0.092000
H      0.466500      2.222800      0.246100
H     -1.992600      1.965000      0.050300
H     -2.987800     -0.290000     -0.235600
H     -1.529900     -2.294700     -0.327000
H      0.928000     -2.055400     -0.133100
