28
Benzoyl_peroxide
O     -0.783300     -0.356600     -1.732100
C     -1.325600      0.185200     -0.779500
O     -0.729900      1.011800      0.123400
O      0.697300      1.037100     -0.203700
C      1.319200      0.215800      0.686400
O      0.794700     -0.357800      1.630300
C      2.770200      0.125800      0.374100
C      3.615400     -0.460000      1.326900
C      4.985200     -0.569600      1.080600
C      5.517200     -0.099400     -0.119200
C      4.682200      0.477700     -1.075600
C      3.310800      0.590200     -0.833400
C     -2.772900      0.044200     -0.468900
C     -3.599300     -0.553300     -1.430900
C     -4.964900     -0.710300     -1.186600
C     -5.511200     -0.276000      0.020300
C     -4.694700      0.312400      0.985700
C     -3.327700      0.472300      0.745600
H      3.209500     -0.834000      2.265300
H      5.635900     -1.024400      1.823600
H      6.583900     -0.187500     -0.311700
H      5.098700      0.836200     -2.014100
H      2.679400      1.031100     -1.601300
H     -3.182000     -0.899500     -2.375000
H     -5.600900     -1.173900     -1.936800
H     -6.574500     -0.401000      0.211100
H     -5.122200      0.642800      1.929600
H     -2.710400      0.921000      1.520400
