17
Benzyl_isocyanate
O      3.197000      2.091500      0.793400
C      2.882000      0.959900      0.755300
N      2.573900     -0.170300      0.699800
C      1.763300     -0.503400     -0.479400
C      0.284300     -0.303100     -0.245900
C     -0.409200      0.730800     -0.889800
C     -1.773300      0.916800     -0.658400
C     -2.454500      0.075800      0.219800
C     -1.772900     -0.950700      0.870500
C     -0.409300     -1.138700      0.641100
H      1.929500     -1.561400     -0.720600
H      2.092400      0.048600     -1.372300
H      0.105800      1.401400     -1.574300
H     -2.304800      1.720600     -1.161400
H     -3.516000      0.223200      0.400400
H     -2.302400     -1.603000      1.560100
H      0.114000     -1.938200      1.161800
