16
Benzoyl_isocyanate
O      2.101000      1.392800      0.620100
C      1.667600      0.283700      0.323900
N      2.372400     -0.890000      0.392400
C      3.476100     -0.782800      0.769700
O      4.588900     -0.721400      1.143600
C      0.255000      0.161900     -0.156900
C     -0.296200     -1.078300     -0.510100
C     -1.618300     -1.157200     -0.955200
C     -2.394900     -0.002900     -1.050000
C     -1.854200      1.233600     -0.700800
C     -0.533500      1.317500     -0.255500
H      0.287800     -1.992900     -0.445200
H     -2.043400     -2.120300     -1.228400
H     -3.423800     -0.067000     -1.396700
H     -2.460400      2.133500     -0.775000
H     -0.124000      2.289600      0.013900
