11
Butanedioic_anhydride
O     -2.128400      1.435600     -0.072100
C     -1.031800      0.900800     -0.089300
C     -0.798300     -0.568700     -0.017400
C      0.686500     -0.671700      0.196500
C      1.175600      0.694500     -0.141000
O      2.348100      1.002200     -0.279900
O      0.140600      1.560000     -0.225200
H     -1.353800     -1.012600      0.812400
H     -1.099800     -1.027500     -0.963500
H      1.134600     -1.420700     -0.461100
H      0.926900     -0.891900      1.240700
