16
Butyl_isocyanate
C     -1.481000      0.650500      0.910600
C     -1.257400     -0.715200      0.282200
C     -0.270600     -0.719300     -0.889900
C      1.174900     -0.395500     -0.506000
N      1.336400      1.057900     -0.375400
C      2.412900      1.384500     -0.042600
O      3.494700      1.699300      0.291400
H     -2.300400      0.599100      1.635100
H     -1.745200      1.395700      0.154000
H     -0.592900      0.994500      1.447900
H     -2.222200     -1.087100     -0.083700
H     -0.922700     -1.419300      1.053000
H     -0.285000     -1.727600     -1.322800
H     -0.619800     -0.035300     -1.673000
H      1.833800     -0.765900     -1.303200
H      1.444600     -0.916400      0.422400
