23
Cyclooctanone
O     -0.671200     -1.421900     -2.089600
C     -0.731200     -1.286200     -0.866900
C     -1.860400     -0.523800     -0.220000
C     -1.668300      0.979200     -0.336800
C     -0.568000      1.544000      0.564400
C      0.855600      1.398900      0.014400
C      1.682500      0.272300      0.640800
C      1.650000     -1.059000     -0.111300
C      0.348800     -1.830200      0.037400
H     -1.977900     -0.832400      0.823900
H     -2.783500     -0.820100     -0.732800
H     -2.613700      1.453900     -0.044600
H     -1.486800      1.266900     -1.379300
H     -0.766100      2.620800      0.654800
H     -0.650500      1.138600      1.579300
H      0.862700      1.335600     -1.079600
H      1.377800      2.334200      0.259900
H      2.730000      0.603200      0.641300
H      1.414900      0.125700      1.693700
H      2.455100     -1.685100      0.294000
H      1.888000     -0.894500     -1.169200
H      0.502200     -2.876900     -0.252000
H      0.010000     -1.843400      1.078200
