20
Cycloheptanone
O      2.965000      0.616300      0.235000
C      1.760200      0.365900      0.139500
C      0.789900      1.453200     -0.264800
C     -0.550300      1.395600      0.456700
C     -1.546600      0.450700     -0.211800
C     -1.254200     -1.032900     -0.010200
C      0.123400     -1.484400     -0.490600
C      1.251100     -1.028900      0.426600
H      1.269400      2.408600     -0.017300
H      0.665800      1.423600     -1.352500
H     -0.421700      1.131400      1.512900
H     -0.987300      2.402000      0.433900
H     -1.605000      0.670900     -1.284900
H     -2.544200      0.655500      0.196700
H     -2.014900     -1.603200     -0.558000
H     -1.381900     -1.291800      1.048200
H      0.122900     -2.581700     -0.502400
H      0.294700     -1.157700     -1.522900
H      0.962700     -1.085100      1.481600
H      2.101200     -1.708000      0.284400
