11
Cyclobutanone
O     -0.412300      2.315700     -0.287500
C     -0.201000      1.125800     -0.196600
C      1.074600      0.264100     -0.119100
C      0.161900     -0.897100      0.344300
C     -1.102000     -0.120900     -0.098700
H      1.808300      0.601800      0.615300
H      1.550300      0.116200     -1.092400
H      0.324800     -1.845700     -0.176000
H      0.204600     -1.081000      1.424100
H     -1.515700     -0.426100     -1.063600
H     -1.893500     -0.053000      0.650100
