31
Decanal
C      4.459300      1.079600     -0.154000
C      3.122600      0.379200     -0.345500
C      2.864300     -0.641100      0.763900
C      1.585300     -1.457200      0.555600
C      0.307100     -0.618800      0.643100
C     -0.939700     -1.501400      0.537900
C     -2.249400     -0.731100      0.729700
C     -2.528600      0.281900     -0.382000
C     -3.897200      0.933400     -0.204500
C     -4.203900      1.943400     -1.284100
O     -3.453600      2.224100     -2.212600
H      4.489100      1.612800      0.801600
H      5.285300      0.361600     -0.173400
H      4.623700      1.807500     -0.954700
H      3.115400     -0.120400     -1.321000
H      2.330900      1.135800     -0.359800
H      3.709900     -1.338600      0.811900
H      2.821400     -0.131100      1.734000
H      1.553000     -2.240700      1.322900
H      1.628100     -1.967300     -0.414500
H      0.290800     -0.071800      1.593300
H      0.299900      0.122000     -0.162300
H     -0.890100     -2.284300      1.304900
H     -0.951500     -2.011400     -0.433100
H     -2.237500     -0.221700      1.700900
H     -3.070300     -1.458300      0.765000
H     -2.481500     -0.216700     -1.358000
H     -1.758000      1.061200     -0.386400
H     -3.951100      1.453700      0.757900
H     -4.688300      0.176200     -0.228800
H     -5.185400      2.439500     -1.190500
