24
Diethyl_maleate
C     -3.751400      0.324200      1.488400
C     -2.749200      0.676300      0.405500
O     -1.646600     -0.239500      0.438300
C     -1.792800     -1.353400     -0.316800
O     -2.792500     -1.712800     -0.917500
C     -0.588400     -2.194700     -0.210800
C      0.671600     -1.777600     -0.395200
C      1.042700     -0.415900     -0.829200
O      0.337800      0.344400     -1.468700
O      2.314000     -0.187500     -0.415800
C      2.816600      1.105400     -0.774300
C      4.230200      1.228700     -0.240100
H     -4.171900     -0.673100      1.324800
H     -3.267000      0.308400      2.470200
H     -4.569900      1.049200      1.510200
H     -2.341600      1.675500      0.591200
H     -3.220700      0.699600     -0.583800
H     -0.795700     -3.233800      0.016400
H      1.495800     -2.469900     -0.266000
H      2.184800      1.884000     -0.332200
H      2.822900      1.210000     -1.865100
H      4.869800      0.443900     -0.657200
H      4.243200      1.105400      0.847900
H      4.658200      2.203500     -0.490300
