23
Diethyl_malonate
C     -4.606400      0.059500      0.149400
C     -3.272500      0.742800     -0.080400
O     -2.232900     -0.160000      0.317900
C     -0.971000      0.326100      0.139400
O     -0.706300      1.446300     -0.274400
C      0.035600     -0.677000      0.604400
C      1.258000     -0.693500     -0.257000
O      1.246500     -0.727900     -1.479800
O      2.379300     -0.732900      0.517800
C      3.627900     -0.767700     -0.190400
C      4.073600      0.640700     -0.536300
H     -4.668600     -0.868600     -0.428400
H     -4.723300     -0.213300      1.203400
H     -5.434400      0.712300     -0.140600
H     -3.161500      0.990300     -1.142000
H     -3.217000      1.657300      0.520700
H     -0.387100     -1.687100      0.587400
H      0.292600     -0.428800      1.639600
H      3.561800     -1.399600     -1.083400
H      4.360900     -1.231700      0.477700
H      3.356600      1.126900     -1.205300
H      5.052800      0.628900     -1.023300
H      4.135300      1.257000      0.366600
