17
Dimethyl_malonate
C     -2.536700      0.354100      1.211400
O     -1.536500      0.140700      0.213800
C     -0.978600     -1.100700      0.240900
O     -1.304100     -1.997800      1.008800
C      0.033300     -1.266800     -0.846300
C      1.011200     -0.141500     -0.949300
O      1.346700      0.371900     -2.009500
O      1.528100      0.179400      0.268500
C      2.495100      1.230700      0.234600
H     -2.112700      0.229900      2.212800
H     -2.898400      1.381400      1.113700
H     -3.380000     -0.326600      1.058900
H     -0.505700     -1.366400     -1.794300
H      0.599100     -2.188900     -0.676900
H      2.050300      2.148800     -0.161800
H      2.824900      1.420400      1.259700
H      3.364100      0.931400     -0.359700
