19
Ethyl_acetoacetate
C      3.405200      0.735200     -0.159800
C      2.138100      0.000800     -0.552400
O      1.122800      0.314100      0.410000
C     -0.076500     -0.293600      0.180300
O     -0.316100     -1.031100     -0.764100
C     -1.049800      0.103500      1.246800
C     -2.393300     -0.565400      1.135400
C     -3.214200     -0.308100     -0.102300
O     -2.823600     -1.280100      2.043000
H      3.230900      1.815900     -0.130100
H      3.728500      0.437200      0.843000
H      4.212200      0.526800     -0.867700
H      2.322300     -1.079300     -0.556800
H      1.815400      0.325300     -1.547900
H     -0.620800     -0.159700      2.220200
H     -1.205500      1.186600      1.212200
H     -4.271000     -0.478700      0.122600
H     -3.098200      0.732000     -0.417700
H     -2.906200     -0.981500     -0.904400
