16
Ethyl_pyruvate
C     -2.918300      0.060400     -0.559400
C     -1.683200     -0.611300      0.008200
O     -0.560200      0.244100     -0.226400
C      0.611700     -0.237200      0.232200
O      0.798900     -1.295300      0.807900
C      1.754700      0.741300     -0.061800
C      3.111700      0.304600      0.407600
O      1.556600      1.802100     -0.640800
H     -3.806000     -0.558900     -0.403100
H     -2.799000      0.243200     -1.632500
H     -3.079000      1.034800     -0.086400
H     -1.524500     -1.575000     -0.488800
H     -1.809500     -0.769000      1.085300
H      3.105300      0.177500      1.493000
H      3.850000      1.069200      0.149800
H      3.391000     -0.630300     -0.084700
