20
Ethyl_oxalate
C     -3.995400     -0.168100      0.098500
C     -2.821300      0.010500     -0.844200
O     -1.616400     -0.219400     -0.107000
C     -0.484700     -0.090400     -0.836800
O     -0.414500      0.193600     -2.020300
C      0.749200     -0.360000      0.061100
O      0.676500     -0.645200      1.243900
O      1.879600     -0.225100     -0.669600
C      3.109000     -0.451100      0.032400
C      3.575800      0.830600      0.696600
H     -4.942600     -0.001700     -0.422100
H     -3.925500      0.531300      0.938100
H     -3.998100     -1.177100      0.524000
H     -2.821000      1.030200     -1.245400
H     -2.895000     -0.709500     -1.667100
H      3.009300     -1.265400      0.759400
H      3.847700     -0.771300     -0.709600
H      2.853000      1.171000      1.444800
H      4.542500      0.683700      1.186500
H      3.672000      1.633300     -0.041800
