23
Ethyl_2-nitrobenzoate
C      3.344100     -0.850500      1.056700
C      2.612300     -1.086900     -0.250700
O      1.217200     -0.784900     -0.095500
C      0.867700      0.501700     -0.327000
O      1.609500      1.436600     -0.572500
C     -0.585100      0.650600     -0.115900
C     -1.014800      1.751100      0.639600
C     -2.373500      1.927400      0.919100
C     -3.315100      1.012000      0.444600
C     -2.904800     -0.076700     -0.325100
C     -1.540700     -0.242800     -0.606800
N     -1.160100     -1.335000     -1.480800
O     -1.572600     -2.464100     -1.183400
O     -0.491200     -1.052200     -2.483300
H      3.285400      0.201100      1.354800
H      4.397600     -1.130200      0.967900
H      2.889600     -1.435700      1.862900
H      2.682100     -2.143800     -0.527600
H      3.056400     -0.508200     -1.068900
H     -0.290500      2.470300      1.020500
H     -2.697500      2.781500      1.511200
H     -4.370800      1.155000      0.667400
H     -3.645300     -0.776200     -0.708600
