11
Ethyl_formate
C     -1.566500      0.391500     -0.168100
C     -0.251000     -0.362500     -0.151300
O      0.784100      0.550600      0.232400
C      2.019200     -0.006400      0.285300
O      2.306200     -1.167500      0.043900
H     -1.521300      1.230000     -0.870900
H     -1.781100      0.814400      0.818900
H     -2.390100     -0.267400     -0.456800
H     -0.040700     -0.761600     -1.149900
H     -0.305200     -1.184800      0.571000
H      2.746300      0.763700      0.586400
