21
Ethyl_4-chlorobenzoate
C      3.507100     -0.666500      0.023400
C      2.783700      0.620100     -0.327400
O      1.445100      0.591600      0.190300
C      0.515700      0.014600     -0.610900
O      0.718400     -0.476100     -1.709900
C     -0.825600      0.049600      0.035000
C     -1.909500     -0.507100     -0.660400
C     -3.189200     -0.499900     -0.097700
C     -3.388300      0.063600      1.161200
Cl     -4.962300      0.073000      1.854400
C     -2.319600      0.619900      1.862600
C     -1.038200      0.613800      1.301500
H      3.018200     -1.530400     -0.437900
H      4.546500     -0.631600     -0.314800
H      3.492800     -0.832700      1.105600
H      2.789700      0.802300     -1.408200
H      3.290800      1.468000      0.144500
H     -1.761200     -0.949200     -1.644500
H     -4.021400     -0.934200     -0.646100
H     -2.475500      1.059300      2.844800
H     -0.217100      1.052200      1.863900
