22
Ethyl_salicylate
C      3.742400     -0.845300     -0.140800
C      2.803900      0.325900     -0.356000
O      1.459600     -0.143900     -0.196300
C      0.512400      0.809700     -0.363700
O      0.714700      1.987200     -0.628900
C     -0.855700      0.260800     -0.185700
C     -1.070700     -1.092700      0.118500
C     -2.370000     -1.581900      0.280500
C     -3.461800     -0.726300      0.140600
C     -3.258800      0.619700     -0.161400
C     -1.963900      1.110700     -0.323600
O     -1.863300      2.445300     -0.618800
H      3.531700     -1.644900     -0.858600
H      3.605000     -1.270600      0.858900
H      4.785200     -0.535500     -0.252800
H      2.937600      0.726900     -1.366900
H      3.012200      1.108200      0.382500
H     -0.236400     -1.780600      0.232800
H     -2.530100     -2.631600      0.516100
H     -4.472700     -1.106400      0.266600
H     -4.108500      1.288800     -0.271000
H     -0.912800      2.676600     -0.709700
