14
Ethyl_chloroacetate
C     -1.962900      0.694900      0.225200
C     -1.260000     -0.649400      0.208800
O      0.123300     -0.489600      0.560400
C      0.970300     -0.186600     -0.471700
O      0.620300     -0.044300     -1.634300
C      2.372700     -0.061000      0.075900
Cl      3.538300      0.331700     -1.204000
H     -1.533900      1.372300     -0.519900
H     -1.844800      1.178500      1.200500
H     -3.030000      0.577100      0.016600
H     -1.706500     -1.307100      0.961600
H     -1.369900     -1.149200     -0.760400
H      2.676900     -1.009800      0.525100
H      2.406100      0.742400      0.816100
