23
Ethyl_3-nitrobenzoate
C      3.846600      0.818700     -0.340900
C      3.252400     -0.516500      0.066200
O      1.869600     -0.579200     -0.315300
C      0.988100     -0.071700      0.580400
O      1.263700      0.427600      1.658900
C     -0.406200     -0.196200      0.073200
C     -0.703000     -0.769100     -1.173400
C     -2.026600     -0.866100     -1.611900
C     -3.065500     -0.392200     -0.810600
C     -2.772000      0.180500      0.434600
N     -3.865600      0.679600      1.278300
O     -3.568800      1.178200      2.372400
O     -5.021500      0.571900      0.844800
C     -1.447700      0.281500      0.881500
H      3.712600      0.987700     -1.414400
H      4.914600      0.855000     -0.108300
H      3.348000      1.644700      0.176100
H      3.766800     -1.325300     -0.463000
H      3.378900     -0.702000      1.139100
H      0.089600     -1.145900     -1.817100
H     -2.246300     -1.312000     -2.580100
H     -4.090600     -0.475600     -1.167600
H     -1.216800      0.726400      1.848900
