26
Ethyl_hexanoate
C      3.405700     -0.491300      0.842600
C      2.950700      0.847300      0.279400
C      2.179600      0.721400     -1.037600
C      0.655600      0.688300     -0.887400
C      0.125900     -0.526100     -0.136700
C     -1.373100     -0.622300     -0.264500
O     -1.949100     -1.422100     -0.988700
O     -1.975600      0.303600      0.531400
C     -3.409900      0.323100      0.490100
C     -3.975800     -0.673100      1.484500
H      4.042900     -1.019600      0.126100
H      3.988100     -0.334400      1.756300
H      2.563500     -1.140200      1.092300
H      2.360300      1.389000      1.026800
H      3.850400      1.447800      0.095400
H      2.521400     -0.151300     -1.606500
H      2.419600      1.599900     -1.650700
H      0.213400      0.712200     -1.892000
H      0.317600      1.605800     -0.389200
H      0.556100     -1.450300     -0.539200
H      0.378200     -0.488900      0.928200
H     -3.723800      1.335600      0.764400
H     -3.782300      0.134600     -0.523400
H     -3.595700     -0.469700      2.491000
H     -5.068200     -0.624500      1.503200
H     -3.675700     -1.694800      1.231400
