20
Ethyl_butanoate
C     -3.130900     -0.053100      0.732200
C     -1.636900      0.187800      0.596000
C     -1.204300      0.201300     -0.864100
C      0.273200      0.472200     -0.977500
O      0.752300      1.574500     -1.204100
O      0.980200     -0.672100     -0.767000
C      2.408000     -0.543100     -0.828500
C      2.954500     -0.138300      0.527700
H     -3.702600      0.732800      0.228500
H     -3.419400     -0.059100      1.788000
H     -3.413900     -1.017000      0.297200
H     -1.377100      1.141500      1.071000
H     -1.092800     -0.592100      1.142000
H     -1.433000     -0.748600     -1.360900
H     -1.735300      0.981400     -1.422100
H      2.806000     -1.524200     -1.107700
H      2.711800      0.161900     -1.610700
H      2.643200     -0.853200      1.296500
H      4.047000     -0.094000      0.508200
H      2.570200      0.841100      0.829800
