20
Ethyl_isobutyrate
C      3.300700     -0.345400      0.265600
C      2.139600      0.088500     -0.607600
O      0.941200      0.016200      0.174000
C     -0.188200      0.379100     -0.499100
O     -0.221200      0.741100     -1.667000
C     -1.394300      0.257200      0.414200
C     -1.789400     -1.208200      0.553300
C     -2.559700      1.089200     -0.114700
H      3.147300     -1.365900      0.631800
H      3.382800      0.300000      1.146400
H      4.242100     -0.306900     -0.289600
H      2.057900     -0.579200     -1.472600
H      2.297200      1.117900     -0.948300
H     -1.115200      0.661400      1.395200
H     -0.966300     -1.799400      0.969200
H     -2.652500     -1.319100      1.217800
H     -2.046900     -1.643800     -0.418500
H     -3.409800      1.049900      0.574300
H     -2.267000      2.138300     -0.231900
H     -2.898400      0.729100     -1.092500
