12
Fumaric_acid
O     -2.105800     -0.577600     -1.144100
C     -1.913600     -0.031800      0.065600
O     -2.846300      0.262000      0.790700
C     -0.503200      0.166800      0.409900
C      0.503200     -0.166800     -0.409900
C      1.913600      0.031800     -0.065600
O      2.846300     -0.262000     -0.790700
O      2.105800      0.577600      1.144100
H     -3.080900     -0.642700     -1.220200
H     -0.334700      0.607800      1.386200
H      0.334700     -0.607800     -1.386200
H      3.080900      0.642700      1.220200
