12
Furancarboxylic_acid
O      2.385200      0.734200     -0.264200
C      1.717700     -0.389600      0.090700
O      2.342700     -1.397100      0.388500
C      0.294000     -0.191100      0.053600
C     -0.488700      0.904500     -0.268600
C     -1.838700      0.503700     -0.123600
C     -1.804100     -0.809900      0.277700
O     -0.521900     -1.240300      0.388100
H      3.321700      0.456200     -0.194700
H     -0.117700      1.874400     -0.571500
H     -2.726600      1.097300     -0.290400
H     -2.563700     -1.542300      0.514400
