18
Gallic_acid
O      2.998100      0.920700     -1.282900
C      2.441800     -0.222500     -0.849900
O      3.054700     -1.274300     -0.863500
C      1.049100     -0.046900     -0.374900
C      0.413000      1.203400     -0.392600
C     -0.893700      1.304800      0.065800
O     -1.517000      2.518700      0.050700
C     -1.566300      0.184400      0.536800
O     -2.853400      0.319500      0.981200
C     -0.938300     -1.055600      0.555400
O     -1.649100     -2.122300      1.029700
C      0.369900     -1.182900      0.101700
H      3.901200      0.662000     -1.561900
H      0.921400      2.091500     -0.756900
H     -2.409800      2.344800      0.412600
H     -3.110400     -0.584700      1.256700
H     -1.084800     -2.914600      0.981800
H      0.873500     -2.146000      0.110300
