27
gamma-Nonalactone
C      4.298600     -0.194100      0.109600
C      2.873700     -0.158100      0.638500
C      1.854500     -0.119600     -0.500100
C      0.420600     -0.082500      0.036800
C     -0.596600     -0.053500     -1.110200
C     -2.058500      0.114700     -0.694600
C     -2.599300     -0.926100      0.263600
C     -3.753800     -0.191900      0.898500
O     -3.327400      1.168400      0.983300
C     -2.351200      1.393100      0.051500
O     -1.837400      2.480400     -0.151600
H      4.515300      0.692700     -0.494700
H      5.010700     -0.221300      0.940300
H      4.464900     -1.081300     -0.509700
H      2.750100      0.722900      1.279000
H      2.700200     -1.041300      1.264300
H      1.984500     -1.001000     -1.139800
H      2.036200      0.763400     -1.124800
H      0.256900     -0.965700      0.663500
H      0.296800      0.799400      0.675200
H     -0.334600      0.768000     -1.789600
H     -0.501600     -0.980000     -1.690500
H     -2.681900      0.133900     -1.598500
H     -1.872900     -1.182100      1.041100
H     -2.907000     -1.852200     -0.229900
H     -4.662800     -0.237300      0.289300
H     -3.978100     -0.570900      1.899700
