15
Glutarimide
O     -0.442100      2.692600      0.489300
C     -0.201800      1.514800      0.239500
C     -1.287100      0.468000      0.161200
C     -0.735400     -0.913700      0.469600
C      0.417300     -1.227700     -0.469200
C      1.488600     -0.167100     -0.385700
O      2.663200     -0.397000     -0.659300
N      1.073400      1.095700     -0.045200
H     -1.723900      0.501600     -0.842800
H     -2.067400      0.720300      0.887100
H     -0.385400     -0.948400      1.509100
H     -1.523900     -1.666300      0.362500
H      0.859300     -2.191700     -0.195400
H      0.073400     -1.286700     -1.507600
H      1.791800      1.805800     -0.013200
