25
Heptyl_isocyanate
C     -3.587800     -0.500300     -1.079600
C     -3.171600      0.681100     -0.217000
C     -1.696300      1.058100     -0.367600
C     -0.739300     -0.022500      0.140800
C      0.715600      0.446600      0.066300
C      1.674400     -0.632300      0.570600
C      3.128400     -0.166400      0.497900
N      3.984500     -1.250400      0.996100
C      5.128500     -0.990900      0.981400
O      6.271700     -0.719300      0.961900
H     -3.095300     -1.423500     -0.760800
H     -3.345500     -0.323400     -2.132200
H     -4.668400     -0.658600     -1.002900
H     -3.395800      0.462700      0.833500
H     -3.781500      1.548200     -0.497300
H     -1.521100      1.984700      0.193100
H     -1.479100      1.279900     -1.419600
H     -0.989900     -0.277500      1.177500
H     -0.852400     -0.934900     -0.455400
H      0.839600      1.356700      0.665700
H      0.965300      0.705000     -0.969900
H      1.425400     -0.896100      1.606200
H      1.552200     -1.545900     -0.024700
H      3.255300      0.738100      1.107800
H      3.383300      0.081200     -0.541400
