23
Heptanoic_acid
C     -3.406400      0.385000      0.087000
C     -2.437100     -0.781300      0.202800
C     -0.979100     -0.351600      0.387000
C     -0.397600      0.356200     -0.839700
C      1.059300      0.791800     -0.654200
C      2.034200     -0.378300     -0.529400
C      3.463600      0.093000     -0.496300
O      3.868800      1.242000     -0.474900
O      4.330800     -0.938900     -0.480800
H     -4.436600      0.015100      0.062400
H     -3.310600      1.062500      0.941300
H     -3.239700      0.957200     -0.830000
H     -2.729900     -1.390000      1.066700
H     -2.528900     -1.422300     -0.681700
H     -0.393200     -1.252100      0.602800
H     -0.895900      0.299800      1.265400
H     -0.477100     -0.296600     -1.717400
H     -0.986500      1.254100     -1.058100
H      1.142500      1.441100      0.226300
H      1.344900      1.407100     -1.517200
H      1.847300     -0.936300      0.393400
H      1.916400     -1.050000     -1.386800
H      5.210600     -0.507600     -0.454500
