20
Hexanoic_acid
C     -3.198800      0.446000     -0.292200
C     -1.771300      0.892300     -0.019300
C     -0.777700     -0.250500     -0.227400
C      0.656300      0.202100      0.047800
C      1.646800     -0.937000     -0.159200
C      3.051300     -0.469500      0.087800
O      3.850100     -0.104900     -0.758100
O      3.376100     -0.459900      1.394000
H     -3.490300     -0.368300      0.378900
H     -3.892300      1.278400     -0.137400
H     -3.310600      0.098000     -1.324000
H     -1.701300      1.264100      1.009600
H     -1.522500      1.727800     -0.683900
H     -1.033300     -1.085100      0.436800
H     -0.854900     -0.621400     -1.256700
H      0.914800      1.039600     -0.612300
H      0.734800      0.579100      1.075200
H      1.431400     -1.782300      0.504400
H      1.593600     -1.321200     -1.184400
H      4.298000     -0.127200      1.407000
