24
Hexane_1,6-diisocyanate
O     -4.265100      3.055200      1.136300
C     -3.553000      2.273700      0.623500
N     -2.844900      1.485000      0.120500
C     -2.883600      0.164900      0.762800
C     -1.926500     -0.778100      0.031600
C     -0.458200     -0.376200      0.207500
C      0.472600     -1.359300     -0.506600
C      1.957300     -1.067100     -0.276000
C      2.422300      0.255400     -0.887600
N      3.877400      0.355200     -0.707800
C      4.342500      1.330200     -1.165600
O      4.797400      2.310200     -1.627800
H     -2.601800      0.231900      1.822200
H     -3.897200     -0.254200      0.707200
H     -2.175900     -0.802800     -1.036400
H     -2.071400     -1.793000      0.421200
H     -0.306500      0.633200     -0.189300
H     -0.212000     -0.347100      1.275800
H      0.260000     -1.356000     -1.582600
H      0.264700     -2.374800     -0.147000
H      2.175300     -1.074100      0.799300
H      2.541800     -1.887100     -0.712800
H      2.162400      0.278500     -1.954400
H      1.922300      1.096400     -0.391300
