17
Isobutyl_chloroformate
C     -1.989800      0.658700      0.257100
C     -0.625400      0.249500     -0.295300
C     -0.516000     -1.275000     -0.355600
C      0.497100      0.868700      0.548000
O      1.771100      0.628900     -0.071500
C      2.615300     -0.250200      0.548500
O      2.323100     -0.839900      1.583000
Cl      4.124500     -0.432000     -0.300000
H     -2.095000      1.748700      0.265600
H     -2.797800      0.250900     -0.359500
H     -2.129200      0.296200      1.281300
H     -0.536500      0.625100     -1.322700
H     -1.341400     -1.700300     -0.936600
H      0.416500     -1.586600     -0.836600
H     -0.546700     -1.715000      0.646900
H      0.373100      1.957100      0.582900
H      0.457100      0.515400      1.584900
