14
Isopropyl_formate
C     -0.873400      0.896900     -0.652300
C     -0.148700     -0.290000     -0.027300
C     -0.898500     -0.794000      1.199900
O      1.159700      0.120200      0.412200
C      2.133400      0.106300     -0.531200
O      2.014800     -0.213600     -1.702500
H     -0.338700      1.259100     -1.536400
H     -0.925300      1.737300      0.048700
H     -1.890400      0.626500     -0.952500
H     -0.070600     -1.112700     -0.748600
H     -0.361800     -1.633400      1.655300
H     -1.908600     -1.125800      0.940900
H     -0.969900     -0.013900      1.966000
H      3.077900      0.437100     -0.072100
