24
Isophorone
C      2.956300     -0.139300      0.111300
C      1.512800     -0.293200     -0.273300
C      1.089200     -1.341500     -0.997600
C     -0.327100     -1.457000     -1.421000
O     -0.679500     -2.433200     -2.079500
C     -1.276600     -0.326200     -1.088500
C     -0.905900      0.391600      0.221400
C     -1.774000      1.654200      0.369500
C     -1.189000     -0.525900      1.430400
C      0.584600      0.803000      0.191900
H      3.060700     -0.135200      1.201100
H      3.576100     -0.952800     -0.280400
H      3.354400      0.802100     -0.280800
H      1.747100     -2.135900     -1.331100
H     -1.256200      0.371000     -1.935200
H     -2.290400     -0.738800     -1.019100
H     -1.532400      2.194200      1.291900
H     -2.839700      1.400400      0.398800
H     -1.620200      2.342800     -0.469000
H     -2.246600     -0.811500      1.466700
H     -0.601100     -1.448700      1.400100
H     -0.952500     -0.017400      2.372100
H      0.883000      1.133500      1.195500
H      0.726800      1.663700     -0.475200
