17
Isopropyl_acetate
C      2.769400     -0.082700      0.401800
C      1.476300     -0.244400     -0.337000
O      1.389900     -0.456700     -1.537900
O      0.431600     -0.118000      0.526200
C     -0.882600     -0.249400     -0.047200
C     -1.323600      1.090400     -0.625600
C     -1.819400     -0.688100      1.071700
H      2.817500      0.912200      0.851400
H      3.602800     -0.189400     -0.298500
H      2.857800     -0.856800      1.168300
H     -0.886400     -1.022100     -0.825700
H     -1.289100      1.876400      0.137000
H     -2.340500      1.033600     -1.025800
H     -0.654000      1.407100     -1.431900
H     -1.820700      0.038300      1.892100
H     -2.844400     -0.809700      0.708300
H     -1.484600     -1.640700      1.496400
