12
Lactic_acid
C     -1.111700      0.840900     -0.019800
C     -0.238900     -0.264300      0.548100
O     -0.963800     -1.492500      0.476500
C      1.079100     -0.355000     -0.214400
O      1.411000     -1.277400     -0.944600
O      1.891100      0.701200     -0.021900
H     -2.068500      0.887100      0.511100
H     -1.341800      0.652800     -1.074700
H     -0.623200      1.817600      0.052300
H     -0.016300     -0.083100      1.604300
H     -0.704900     -1.923500     -0.361500
H      2.687900      0.496200     -0.555500
