16
Levulinic_acid
C     -2.453300     -0.108000     -0.066300
C     -1.306700      0.703300      0.476300
O     -1.464100      1.861300      0.861300
C      0.056800      0.055000      0.482100
C      0.742100      0.258200     -0.858300
C      2.194300     -0.114000     -0.801600
O      3.121400      0.538600     -1.249300
O      2.411400     -1.322100     -0.249700
H     -3.384100      0.456800      0.036900
H     -2.285000     -0.324400     -1.123700
H     -2.545200     -1.038200      0.499700
H      0.642200      0.499800      1.295800
H     -0.053000     -1.008100      0.723300
H      0.260700     -0.331400     -1.646000
H      0.678800      1.311700     -1.156300
H      3.383800     -1.438400     -0.312100
