15
m-Hydroxybenzaldehyde
O     -2.521600     -1.199400      0.359200
C     -1.398300     -0.442800      0.200400
C     -1.546200      0.941100      0.229400
C     -0.430200      1.763200      0.072000
C      0.830200      1.194900     -0.113900
C      0.966400     -0.197200     -0.141200
C      2.297400     -0.805900     -0.337600
O      3.309600     -0.132000     -0.480700
C     -0.148500     -1.026700      0.016000
H     -2.285400     -2.140400      0.319800
H     -2.530500      1.378900      0.374500
H     -0.542900      2.844200      0.094200
H      1.701200      1.835800     -0.236800
H      2.338000     -1.907900     -0.349500
H     -0.039400     -2.105800     -0.005700
