18
m-Phthalic_acid
O      2.903400      1.179500      0.750800
C      2.684200      0.100800     -0.019900
O      3.604800     -0.529100     -0.506200
C      1.242300     -0.201400     -0.188200
C      0.885300     -1.306000     -0.972800
C     -0.459000     -1.630500     -1.160500
C     -1.453400     -0.852700     -0.565000
C     -1.105200      0.253800      0.221200
C     -2.129000      1.106800      0.872000
O     -1.907900      2.080700      1.567000
O     -3.385100      0.698700      0.620900
C      0.244700      0.579000      0.409200
H      3.879800      1.261700      0.776400
H      1.655200     -1.917700     -1.440700
H     -0.731200     -2.489000     -1.770500
H     -2.497200     -1.117300     -0.719900
H     -3.942700      1.343500      1.105400
H      0.510800      1.439300      1.020700
