12
Maleic_acid
O      2.581500     -0.297700     -0.228100
C      1.309100     -0.031200     -0.564300
O      1.013000      0.890400     -1.297500
C      0.420600     -1.030200      0.044000
C     -0.891700     -0.848100      0.242700
C     -1.612800      0.398700     -0.022400
O     -2.674600      0.478800     -0.610100
O     -1.030700      1.449500      0.572700
H      3.092100      0.410200     -0.674200
H      0.882600     -1.976900      0.299100
H     -1.511800     -1.656800      0.610100
H     -1.577400      2.213200      0.295900
