15
Malic_acid
O      2.611000      0.015800      0.743300
C      1.367100     -0.428600      0.441600
O      1.109500     -1.619200      0.476700
C      0.423800      0.725800      0.103600
O      1.130400      1.751400     -0.606200
C     -0.721500      0.243000     -0.773600
C     -1.760000     -0.451100      0.056000
O     -1.883600     -0.407200      1.268100
O     -2.631500     -1.147600     -0.698900
H      3.109100     -0.805800      0.945200
H      0.071400      1.163200      1.043700
H      1.974400      1.868000     -0.125900
H     -1.201500      1.089800     -1.277100
H     -0.354100     -0.443300     -1.545400
H     -3.244500     -1.554100     -0.051000
