11
Malonic_acid
O      2.261700     -0.732900      0.016800
C      1.238100      0.112200      0.262000
O      1.401900      1.071900      0.995400
C      0.015300     -0.235200     -0.519700
C     -1.251600      0.095200      0.196300
O     -1.472300      0.008500      1.391900
O     -2.243100      0.446500     -0.649700
H      2.995500     -0.382400      0.565900
H      0.066200      0.314300     -1.465500
H     -0.001400     -1.309100     -0.732800
H     -3.010400      0.611000     -0.060700
