36
Menthyl_acetate
C      2.723300     -3.126000      0.954300
C      2.464300     -1.929800      0.090600
O      3.293700     -1.419800     -0.648500
O      1.181500     -1.509000      0.259400
C      0.775500     -0.360900     -0.505200
C      1.218300      0.930900      0.188000
C      0.929400      2.167700     -0.678300
C      0.803500      3.411000      0.203600
C     -0.308300      1.983900     -1.572700
C     -1.331900      1.040500     -0.948400
C     -0.763600     -0.383400     -0.745200
C     -1.593800     -1.237300      0.261700
C     -3.064200     -1.338500     -0.164700
C     -1.519400     -0.758800      1.714500
H      2.050300     -3.939600      0.672200
H      2.587000     -2.860200      2.005600
H      3.754500     -3.461000      0.810000
H      1.254700     -0.408100     -1.493700
H      0.718000      1.011600      1.160900
H      2.288600      0.895900      0.425600
H      1.788700      2.330100     -1.342800
H      0.682200      4.310900     -0.408700
H      1.700900      3.543700      0.817200
H     -0.059500      3.339300      0.874000
H      0.006400      1.568400     -2.539000
H     -0.775400      2.950400     -1.795300
H     -2.214300      0.991000     -1.597500
H     -1.668100      1.469800      0.001300
H     -0.882400     -0.897500     -1.712000
H     -1.196700     -2.260900      0.234600
H     -3.598000     -2.058100      0.465800
H     -3.580200     -0.377000     -0.077700
H     -3.147700     -1.681500     -1.201200
H     -1.921900      0.250900      1.836000
H     -2.101700     -1.422600      2.363600
H     -0.493700     -0.765800      2.092000
