15
Mesaconic_acid
O     -2.687000     -0.049600      0.727500
C     -1.744500     -0.661000     -0.007100
O     -2.004100     -1.663300     -0.648600
C     -0.428100      0.012700      0.085900
C     -0.374800      1.347300      0.765300
C      0.590300     -0.660500     -0.481000
C      1.992900     -0.225000     -0.488100
O      2.501600      0.699800      0.111300
O      2.713100     -1.032600     -1.283800
H     -3.488300     -0.594500      0.582100
H     -0.463500      1.225200      1.849600
H     -1.193700      1.989000      0.420900
H      0.541300      1.903700      0.560500
H      0.421700     -1.617300     -0.970100
H      3.623100     -0.673800     -1.224200
