19
Methyl_salicylate
C      3.210500      1.079100      0.025100
O      1.841200      0.785400      0.319100
C      1.220200      0.053000     -0.643700
O      1.740600     -0.338900     -1.676500
C     -0.198200     -0.218100     -0.278700
C     -0.952700     -0.970000     -1.196000
C     -2.292000     -1.274700     -0.940400
C     -2.893000     -0.831600      0.234900
C     -2.156600     -0.084900      1.153700
C     -0.817800      0.221100      0.900800
O     -0.197500      0.958300      1.872800
H      3.614700      1.666500      0.854200
H      3.790500      0.154900     -0.060300
H      3.286500      1.673700     -0.890600
H     -0.498600     -1.324600     -2.120300
H     -2.863600     -1.857300     -1.659000
H     -3.935000     -1.066500      0.437700
H     -2.625700      0.261200      2.071500
H      0.726500      1.113500      1.595700
