17
Methyl_isobutyrate
C      2.824400      0.201300     -0.024400
O      1.538100     -0.263300     -0.435300
C      0.498500      0.446100      0.090600
O      0.613900      1.398700      0.849400
C     -0.818500     -0.129300     -0.397300
C     -1.940700      0.896200     -0.259500
C     -1.143300     -1.401100      0.377100
H      2.934200      0.115400      1.061200
H      3.580200     -0.430200     -0.499500
H      2.981400      1.234200     -0.350600
H     -0.709600     -0.361600     -1.464000
H     -2.878300      0.503800     -0.666900
H     -2.112300      1.164700      0.788900
H     -1.695200      1.816600     -0.800500
H     -2.085500     -1.839200      0.032100
H     -1.231600     -1.200500      1.450700
H     -0.355900     -2.151600      0.248100
