17
Methyl_butanoate
C     -2.642800     -0.518200     -0.458300
C     -1.123400     -0.540600     -0.468100
C     -0.542300      0.735300      0.126100
C      0.963000      0.706800      0.078700
O      1.633100      1.238100     -0.796100
O      1.457600     -0.006200      1.127800
C      2.882700     -0.094700      1.147200
H     -3.027000     -0.427000      0.562600
H     -3.026500      0.321400     -1.046600
H     -3.038500     -1.443400     -0.888900
H     -0.770300     -1.412400      0.095600
H     -0.768000     -0.668500     -1.497700
H     -0.881600      1.616200     -0.431400
H     -0.864900      0.879600      1.163700
H      3.247000     -0.607600      0.251500
H      3.173900     -0.680300      2.023600
H      3.328000      0.901500      1.232800
