11
Methyl_dichloroacetate
C     -1.838300     -0.402400      0.085100
O     -0.428500     -0.615100      0.000600
C      0.326800      0.489000      0.275800
O     -0.140800      1.584900      0.573400
C      1.812800      0.214600      0.173600
Cl      2.230200     -0.277500     -1.479900
Cl      2.287500     -1.022900      1.354100
H     -2.155900      0.351400     -0.642000
H     -2.120600     -0.106800      1.100300
H     -2.338000     -1.345400     -0.152900
H      2.364700      1.130300      0.403300
