23
Methyl_hexanoate
C     -3.172800     -1.044300      0.124400
C     -2.576400     -0.280500     -1.047800
C     -1.495300      0.721600     -0.637600
C     -0.244500      0.060300     -0.057100
C      0.840000      1.091500      0.235000
C      2.052100      0.432600      0.839900
O      2.284600      0.391500      2.040200
O      2.827400     -0.120100     -0.133400
C      3.992900     -0.780900      0.360400
H     -2.434700     -1.702100      0.592400
H     -3.558300     -0.358500      0.885400
H     -4.002800     -1.670300     -0.218900
H     -3.382000      0.265700     -1.552900
H     -2.169900     -0.990800     -1.777000
H     -1.214100      1.303500     -1.524200
H     -1.909300      1.432300      0.088100
H      0.137900     -0.690100     -0.759900
H     -0.491300     -0.473100      0.868300
H      0.478800      1.848500      0.940900
H      1.140700      1.628200     -0.672200
H      4.641500     -0.073300      0.886200
H      3.713600     -1.612500      1.015000
H      4.542100     -1.183600     -0.495200
