12
Methacrylic_acid
C     -0.830500     -1.154800     -0.036300
C     -0.248800      0.223100     -0.064200
C     -0.983900      1.323600     -0.295400
C      1.202100      0.399900      0.171700
O      1.815800      1.451800      0.179900
O      1.826900     -0.768600      0.390100
H     -0.672900     -1.620600      0.942100
H     -1.909500     -1.144500     -0.225000
H     -0.369000     -1.784400     -0.804100
H     -2.052200      1.263600     -0.475700
H     -0.538000      2.315200     -0.310800
H      2.760000     -0.504200      0.527700
