20
Methyl_2-nitrobenzoate
C      3.363400      0.913600      0.197600
O      1.947200      0.994800      0.027700
C      1.343300     -0.212300     -0.079300
O      1.877400     -1.306800     -0.076500
C     -0.113600     -0.023000     -0.204800
C     -0.617200      0.953700     -1.076800
C     -1.997100      1.083000     -1.265800
C     -2.883900      0.237600     -0.595200
C     -2.396900     -0.736200      0.276800
C     -1.012600     -0.854700      0.465500
N     -0.542800     -1.819600      1.439900
O      0.125200     -1.381300      2.386000
O     -0.910800     -2.992600      1.292400
H      3.751800      1.931200      0.293800
H      3.827100      0.446300     -0.676700
H      3.609600      0.360800      1.109800
H      0.059100      1.607600     -1.624400
H     -2.381600      1.841100     -1.946000
H     -3.956100      0.342200     -0.750700
H     -3.091500     -1.385300      0.806600
