18
Methyl_4-chlorobenzoate
C      3.434900      0.479000     -0.030700
O      2.017100      0.642300      0.031600
C      1.322500     -0.508700     -0.147200
O      1.805400     -1.612000     -0.346600
C     -0.142900     -0.256400     -0.068500
C     -1.011600     -1.345700     -0.232600
C     -2.395900     -1.161800     -0.167600
C     -2.914700      0.111100      0.061500
Cl     -4.617700      0.338500      0.141700
C     -2.062100      1.201800      0.226200
C     -0.676700      1.020200      0.161600
H      3.735100      0.107200     -1.015400
H      3.778400     -0.194800      0.760500
H      3.895600      1.458500      0.124600
H     -0.613000     -2.343100     -0.411900
H     -3.059200     -2.013400     -0.296200
H     -2.467500      2.194700      0.405000
H     -0.027600      1.882900      0.292400
