11
Methyl_chloroacetate
C      1.801400      0.475500      0.026100
O      0.393900      0.591000      0.239700
C     -0.326200     -0.479800     -0.201700
O      0.154800     -1.487400     -0.705900
C     -1.797800     -0.275800      0.039000
Cl     -2.419100      0.983200     -1.042200
H      2.275900      1.389500      0.393700
H      2.204500     -0.374000      0.586200
H      2.021000      0.376600     -1.041600
H     -2.334200     -1.206500     -0.165800
H     -1.974200      0.007800      1.080300
