22
Methyl_2-methoxybenzoate
C      3.329100      0.813200      0.845500
O      1.949800      0.460900      0.755200
C      1.680800     -0.461800     -0.200900
O      2.496600     -1.032200     -0.908600
C      0.239000     -0.789000     -0.199500
C     -0.098000     -2.151700     -0.198000
C     -1.435000     -2.541100     -0.190200
C     -2.434400     -1.571900     -0.194200
C     -2.102500     -0.212300     -0.216700
C     -0.762900      0.196600     -0.225700
O     -0.357200      1.502400     -0.300600
C     -1.354400      2.511600     -0.214800
H      3.685700      1.222000     -0.105300
H      3.432600      1.584800      1.613400
H      3.926600     -0.054100      1.143100
H      0.685200     -2.907300     -0.200200
H     -1.695700     -3.596500     -0.184200
H     -3.479700     -1.873000     -0.191200
H     -2.918600      0.502800     -0.240100
H     -0.848900      3.482000     -0.223100
H     -1.915400      2.436900      0.722700
H     -2.022700      2.477800     -1.081300
