19
Methyl_levulinate
C     -3.360400      0.599700      0.385300
O     -2.213600      0.187800      1.129700
C     -1.179200     -0.246200      0.357700
O     -1.197900     -0.340000     -0.862500
C     -0.017600     -0.644800      1.236000
C      1.249800     -0.846500      0.413600
C      1.773600      0.463100     -0.145800
C      2.703400      0.366600     -1.326000
O      1.496000      1.549100      0.362400
H     -3.776800     -0.244300     -0.173200
H     -3.105800      1.423800     -0.288600
H     -4.115200      0.952600      1.093400
H     -0.283300     -1.583600      1.733600
H      0.135600      0.126600      1.998700
H      2.038600     -1.273800      1.041900
H      1.063100     -1.536300     -0.416900
H      2.188600     -0.117400     -2.159600
H      3.010000      1.369200     -1.637000
H      3.591200     -0.205700     -1.046200
