16
Methyl_acetoacetate
C      2.842200      0.831400     -0.276400
O      1.738300      0.418200      0.531700
C      0.552000      0.348700     -0.138000
O      0.406900      0.585800     -1.328000
C     -0.528800     -0.084800      0.803400
C     -1.904700     -0.104000      0.193500
C     -2.161900     -1.056300     -0.946400
O     -2.803100      0.617800      0.630800
H      3.023900      0.104100     -1.074000
H      3.730200      0.875600      0.360300
H      2.662600      1.828100     -0.691700
H     -0.306600     -1.090800      1.174000
H     -0.545500      0.607500      1.652800
H     -1.806000     -0.626500     -1.884600
H     -1.662900     -2.009700     -0.754500
H     -3.236500     -1.245100     -1.025600
