22
N-Benzylacetamide
C      3.788300      0.377900     -0.387500
C      2.721400     -0.676400     -0.507600
O      2.983200     -1.839800     -0.794300
N      1.447400     -0.218300     -0.281700
C      0.310300     -1.092500     -0.445700
C     -0.956600     -0.404300     -0.015500
C     -1.776500      0.235700     -0.955500
C     -2.936200      0.897300     -0.548000
C     -3.282900      0.931800      0.801500
C     -2.469900      0.307500      1.745800
C     -1.310200     -0.354600      1.340500
H      3.405200      1.288600      0.081400
H      4.163600      0.622200     -1.384600
H      4.603900     -0.007700      0.230500
H      1.275600      0.776800     -0.225000
H      0.255200     -1.391700     -1.499100
H      0.471500     -2.007600      0.136700
H     -1.517500      0.220300     -2.012100
H     -3.570000      1.385800     -1.283700
H     -4.186800      1.446000      1.117700
H     -2.738800      0.336500      2.798600
H     -0.680200     -0.833500      2.087600
