17
n-Butyl_formate
C     -2.732000      0.034200      0.296300
C     -1.375400     -0.596700      0.026200
C     -0.249100      0.425900      0.146700
C      1.113600     -0.202700     -0.123500
O      2.109700      0.820100      0.009500
C      3.376700      0.388800     -0.207600
O      3.721400     -0.746200     -0.493600
H     -3.523900     -0.715700      0.204700
H     -2.940400      0.837300     -0.417900
H     -2.775800      0.452800      1.306900
H     -1.212200     -1.416000      0.736000
H     -1.375900     -1.033600     -0.979200
H     -0.411700      1.254600     -0.553800
H     -0.249300      0.875300      1.147700
H      1.144500     -0.613100     -1.139700
H      1.310700     -1.001300      0.601400
H      4.069000      1.236100     -0.084800
