12
N-Ethylformamide
C     -1.672100     -0.223200      0.066100
C     -0.333700      0.260300     -0.457100
N      0.736300     -0.039600      0.469600
C      2.046000     -0.038900      0.061000
O      2.438700      0.108300     -1.086500
H     -2.469600      0.015900     -0.643900
H     -1.912700      0.248900      1.024500
H     -1.662500     -1.307100      0.221500
H     -0.350500      1.345900     -0.600600
H     -0.113400     -0.203000     -1.424900
H      0.556200      0.022700      1.463400
H      2.737300     -0.190200      0.906900
