19
N-Ethyl-2-pyrrolidone
C     -2.477200     -0.023100      0.414400
C     -1.523700     -0.359300     -0.718500
N     -0.138900     -0.186900     -0.323100
C      0.521000      1.093100     -0.333500
C      1.784200      0.839400      0.465400
C      2.093600     -0.630700      0.207000
C      0.729800     -1.228900     -0.037100
O      0.468500     -2.420000     -0.023700
H     -3.513500     -0.179600      0.099500
H     -2.369500      1.020700      0.726500
H     -2.284100     -0.654100      1.288400
H     -1.680100     -1.400200     -1.021400
H     -1.715000      0.276100     -1.589700
H     -0.107300      1.862400      0.123300
H      0.741800      1.359900     -1.372100
H      1.582100      0.985600      1.534000
H      2.605800      1.504600      0.185700
H      2.579300     -1.097900      1.066900
H      2.703500     -0.761100     -0.692100
