15
N-Ethylacetamide
C     -2.421000     -0.128700     -0.118000
C     -1.002800      0.129500     -0.551200
O     -0.727200      0.956400     -1.414000
N     -0.065000     -0.626600      0.114400
C      1.353500     -0.464300     -0.125500
C      1.933600      0.677800      0.689400
H     -3.054000     -0.223500     -1.004700
H     -2.765900      0.708500      0.494300
H     -2.504700     -1.052500      0.461000
H     -0.355100     -1.192400      0.900800
H      1.838500     -1.406800      0.147100
H      1.521600     -0.287100     -1.193100
H      1.774200      0.513500      1.760400
H      1.464300      1.631200      0.425600
H      3.009700      0.765100      0.511500
