17
N-Formylmorpholine
O      2.899000     -1.125400     -0.343200
C      2.249600     -0.105100     -0.157200
N      0.876300     -0.034600     -0.046600
C      0.078300     -1.220400     -0.347600
C     -1.307800     -1.136500      0.296200
O     -1.964600      0.096700     -0.041200
C     -1.198000      1.217300      0.425600
C      0.190400      1.241300     -0.218500
H      2.738600      0.874400     -0.023500
H     -0.017900     -1.264000     -1.439200
H      0.602200     -2.123500     -0.017600
H     -1.239200     -1.213400      1.387800
H     -1.936400     -1.959200     -0.058300
H     -1.124000      1.166600      1.518400
H     -1.745800      2.129300      0.169100
H      0.799300      2.051900      0.195300
H      0.099900      1.404700     -1.299200
