19
N-Methylbenzamide
C      3.354900     -0.460700     -0.782500
N      1.945400     -0.585900     -0.508600
C      1.196100      0.527100     -0.181300
O      1.675800      1.645800     -0.037000
C     -0.272700      0.317200     -0.048000
C     -1.125500      1.399800     -0.297500
C     -2.508200      1.245400     -0.184400
C     -3.043400      0.012600      0.187500
C     -2.198700     -1.065000      0.454300
C     -0.814300     -0.915100      0.341200
H      3.481600     -0.029600     -1.779100
H      3.828900      0.188900     -0.041600
H      3.805100     -1.455300     -0.748900
H      1.466700     -1.398100     -0.872600
H     -0.712300      2.365700     -0.581900
H     -3.165700      2.088500     -0.381900
H     -4.120500     -0.105000      0.279700
H     -2.619400     -2.019500      0.761200
H     -0.173800     -1.756800      0.587500
