19
N-Methylformanilide
C     -2.129700      1.112300     -0.531100
N     -1.457100      0.015300      0.153100
C     -2.261400     -0.877900      0.862200
O     -1.954500     -1.867600      1.513300
C     -0.022400     -0.085400      0.061700
C      0.720200      0.857600     -0.674900
C      2.115300      0.780600     -0.778400
C      2.806000     -0.244400     -0.146000
C      2.099500     -1.188700      0.587400
C      0.703600     -1.108300      0.688600
H     -1.773200      2.067200     -0.132000
H     -3.213800      1.077100     -0.384900
H     -1.938900      1.045500     -1.607000
H     -3.328100     -0.605700      0.793600
H      0.241800      1.682700     -1.192800
H      2.657800      1.525300     -1.355200
H      3.887700     -0.308400     -0.223200
H      2.627100     -1.996900      1.088000
H      0.220000     -1.880100      1.277600
