15
N-Methylsuccinimide
C      2.128600      0.210500     -0.122100
N      0.696400      0.078900     -0.004400
C     -0.177600      1.082300     -0.299700
O      0.102500      2.211400     -0.673100
C     -1.577800      0.582300     -0.103800
C     -1.410800     -0.869700      0.304600
C      0.072400     -1.091100      0.311700
O      0.605700     -2.162500      0.557200
H      2.630300     -0.474500      0.566800
H      2.412900     -0.045100     -1.147300
H      2.433000      1.240200      0.084500
H     -2.138400      0.670900     -1.038900
H     -2.074300      1.163400      0.678600
H     -1.819200     -1.054100      1.302400
H     -1.883700     -1.542900     -0.416200
