16
N-Methyl-2-pyrrolidone
C      2.113000     -0.045300     -0.359700
N      0.672900     -0.014800     -0.265200
C     -0.015500      1.008700      0.476000
C     -1.474300      0.705400      0.200500
C     -1.505900     -0.812700      0.065100
C     -0.117000     -1.146800     -0.425800
O      0.241100     -2.238000     -0.836500
H      2.527600     -0.229800      0.635300
H      2.467500      0.916500     -0.738900
H      2.432300     -0.846200     -1.032100
H      0.279100      2.002400      0.127600
H      0.225700      0.895800      1.538400
H     -1.777200      1.162400     -0.750000
H     -2.142500      1.078600      0.981500
H     -1.662900     -1.296400      1.034000
H     -2.264000     -1.139800     -0.650300
