21
N_N-Diethylacetamide
C     -0.903400     -1.479200      1.095500
C     -1.076700     -0.840400     -0.272500
N     -0.043900      0.153900     -0.575000
C      1.235300     -0.326600     -1.100600
C      2.313100     -0.450000     -0.033300
C     -0.165100      1.514900     -0.309500
C     -1.469700      1.997100      0.273900
O      0.737300      2.320100     -0.543800
H      0.002100     -2.091100      1.133900
H     -0.834400     -0.724700      1.885000
H     -1.753200     -2.132400      1.317200
H     -1.063000     -1.607700     -1.054600
H     -2.063300     -0.371100     -0.322300
H      1.577900      0.376900     -1.868800
H      1.082400     -1.290500     -1.598000
H      3.252500     -0.784400     -0.484700
H      2.034500     -1.173400      0.737200
H      2.498200      0.507900      0.462700
H     -2.271100      1.889500     -0.461400
H     -1.379400      3.057700      0.529100
H     -1.710300      1.453500      1.190100
