18
N_N-Dimethylpropionamide
C      1.710900     -0.867600      0.093600
N      1.004400      0.402000      0.017500
C      1.804900      1.553700     -0.366200
C     -0.383100      0.521800     -0.033100
O     -0.940300      1.589500     -0.290200
C     -1.188400     -0.737200      0.254600
C     -2.688000     -0.501200      0.168900
H      1.916400     -1.211400     -0.924300
H      1.132100     -1.630200      0.616700
H      2.653600     -0.725600      0.630500
H      2.113500      1.432600     -1.408900
H      1.247800      2.489200     -0.267400
H      2.689600      1.606800      0.275100
H     -0.944600     -1.086700      1.263400
H     -0.912400     -1.508600     -0.472100
H     -3.231700     -1.426900      0.381400
H     -2.975700     -0.157400     -0.830200
H     -3.009000      0.257100      0.890700
