24
N_N-Dipropylformamide
O     -0.918100     -2.525300      1.607500
C     -0.052800     -2.089200      0.859700
N     -0.008600     -0.814200      0.330100
C      1.056300     -0.417100     -0.582500
C      2.218600      0.237300      0.162100
C      3.332100      0.641400     -0.790000
C     -1.053400      0.148100      0.664200
C     -2.211000      0.090900     -0.331600
C     -3.299000      1.091100      0.022400
H      0.798000     -2.713500      0.539700
H      0.640000      0.260200     -1.336500
H      1.417300     -1.310000     -1.106700
H      1.867700      1.123100      0.704200
H      2.617000     -0.454500      0.913900
H      3.730800     -0.229600     -1.319800
H      4.153400      1.107600     -0.236800
H      2.971300      1.360400     -1.532500
H     -0.610700      1.150100      0.692700
H     -1.427200     -0.071000      1.671400
H     -1.846300      0.297300     -1.344600
H     -2.638800     -0.918500     -0.350800
H     -3.711000      0.887400      1.015900
H     -4.116900      1.034100     -0.702600
H     -2.908800      2.113900      0.014800
