22
N_N-Dimethylbenzamide
C     -3.173400     -0.158900      0.637700
N     -1.809600     -0.119100      0.140100
C     -1.653700     -0.203300     -1.305600
C     -0.800300      0.265400      1.022300
O     -1.015700      0.671900      2.162200
C      0.612100      0.166700      0.587300
C      1.122400     -1.035300      0.082500
C      2.463600     -1.112700     -0.295000
C      3.293500      0.001100     -0.153800
C      2.789600      1.191500      0.373700
C      1.449500      1.274200      0.753100
H     -3.697600     -1.002600      0.179500
H     -3.200400     -0.276700      1.724600
H     -3.673200      0.776200      0.368100
H     -0.651600      0.067500     -1.640700
H     -2.360500      0.488000     -1.775700
H     -1.884400     -1.224700     -1.621100
H      0.483200     -1.909700     -0.004700
H      2.865500     -2.042900     -0.688800
H      4.339900     -0.062400     -0.443000
H      3.442800      2.051500      0.498400
H      1.058200      2.194200      1.180900
