15
Nicotinamide
N      2.573800      0.442100     -0.021600
C      1.697900     -0.524700     -0.433000
O      2.104700     -1.547300     -0.969100
C      0.256900     -0.305900     -0.177000
C     -0.298300      0.946900      0.094200
C     -1.670700      1.052000      0.319600
C     -2.440600     -0.099500      0.261800
N     -1.938000     -1.323200     -0.006900
C     -0.600800     -1.398400     -0.228200
H      2.326100      1.154400      0.649200
H      3.556100      0.209400     -0.105600
H      0.308900      1.845700      0.109100
H     -2.131800      2.011500      0.527700
H     -3.513700     -0.066300      0.429700
H     -0.230400     -2.396800     -0.449900
