28
Nonanal
C     -2.917100      1.337400     -0.365600
C     -2.450400      0.807500      0.981000
C     -2.226000     -0.706500      0.998900
C     -1.190100     -1.238400      0.003500
C      0.210300     -0.656500      0.213800
C      1.225100     -1.304100     -0.729600
C      2.671000     -0.843300     -0.506800
C      2.915000      0.631100     -0.823400
C      2.723500      1.566700      0.348200
O      2.504400      1.214900      1.502100
H     -3.815400      0.812000     -0.705000
H     -3.157200      2.402700     -0.287200
H     -2.141900      1.228800     -1.129800
H     -3.210600      1.050800      1.733200
H     -1.538400      1.332600      1.285300
H     -3.182000     -1.208200      0.802900
H     -1.927400     -1.000400      2.012900
H     -1.522100     -1.046600     -1.023300
H     -1.145700     -2.329300      0.113300
H      0.185100      0.422700      0.035200
H      0.520000     -0.816000      1.253200
H      0.936500     -1.108700     -1.769900
H      1.193200     -2.392900     -0.596500
H      3.303400     -1.438700     -1.178000
H      2.987000     -1.089100      0.513600
H      3.955300      0.762600     -1.143500
H      2.272000      0.970400     -1.642200
H      2.822500      2.638600      0.104000
