17
o-Nitrobenzoic_acid
O      2.511400      0.659200     -0.661900
C      1.586500      1.297500      0.070700
O      1.795800      2.374500      0.592900
C      0.294900      0.588900      0.043300
C     -0.863600      1.368900     -0.079100
C     -2.118900      0.758400     -0.163700
C     -2.230200     -0.632900     -0.122700
C     -1.087900     -1.421000      0.019000
C      0.166700     -0.800200      0.109500
N      1.320000     -1.643600      0.352400
O      1.502500     -2.587300     -0.428800
O      2.000200     -1.396000      1.357500
H      3.318900      1.212100     -0.584300
H     -0.791400      2.455100     -0.119900
H     -3.012800      1.371400     -0.265200
H     -3.210400     -1.101100     -0.190700
H     -1.181700     -2.504100      0.071100
