18
o-Phthalic_acid
O      1.528700      1.885500      1.018800
C      0.588100      1.991900      0.065200
O      0.381600      3.025900     -0.539800
C     -0.214600      0.762200     -0.026900
C     -1.608800      0.905800      0.030700
C     -2.430500     -0.221700      0.006200
C     -1.865700     -1.493300     -0.080400
C     -0.478500     -1.639800     -0.159100
C      0.356300     -0.510600     -0.140800
C      1.812700     -0.679500     -0.331600
O      2.560000      0.069900     -0.929600
O      2.260300     -1.813900      0.237400
H      2.010400      2.738000      0.975300
H     -2.053800      1.896500      0.105800
H     -3.511100     -0.108000      0.057600
H     -2.506200     -2.372500     -0.099300
H     -0.054100     -2.637400     -0.252800
H      3.225000     -1.799000      0.063300
