26
Octanoic_acid
C      3.450700      0.885600      1.378800
C      2.040400      0.710700      0.836200
C      1.914500     -0.573000      0.014900
C      0.542400     -0.739000     -0.646500
C     -0.596900     -0.915100      0.360900
C     -1.928100     -1.316500     -0.288400
C     -2.508300     -0.288600     -1.259600
C     -2.929500      0.987500     -0.581400
O     -3.178100      1.153100      0.600000
O     -3.057600      2.004700     -1.456000
H      3.519300      1.806800      1.965800
H      4.179900      0.947000      0.564600
H      3.728100      0.048000      2.026800
H      1.784200      1.577200      0.215800
H      1.341100      0.694000      1.678900
H      2.124400     -1.442000      0.650400
H      2.676100     -0.569400     -0.774900
H      0.349200      0.128000     -1.288300
H      0.582700     -1.618200     -1.301200
H     -0.732600      0.004700      0.939400
H     -0.321800     -1.698400      1.078300
H     -2.655200     -1.513800      0.509300
H     -1.789500     -2.264100     -0.823500
H     -1.784900     -0.057200     -2.047400
H     -3.400300     -0.709800     -1.737300
H     -3.350000      2.757900     -0.900900
