25
Octanal
C      2.469100      1.334700     -0.967400
C      2.449800     -0.178500     -1.116500
C      2.008200     -0.913100      0.151600
C      0.604700     -0.570000      0.662700
C     -0.500400     -0.880600     -0.349800
C     -1.909900     -0.736800      0.231600
C     -2.257300      0.695700      0.626500
C     -3.691600      0.840000      1.077200
O     -4.496300     -0.081900      1.156700
H      3.083700      1.637800     -0.114000
H      1.461100      1.736900     -0.829600
H      2.888800      1.795300     -1.867600
H      3.461200     -0.515800     -1.374200
H      1.808900     -0.455100     -1.960800
H      2.728300     -0.702500      0.952200
H      2.064200     -1.992800     -0.035400
H      0.568700      0.485300      0.953300
H      0.426200     -1.149300      1.577200
H     -0.406500     -0.227400     -1.224800
H     -0.380700     -1.910800     -0.707100
H     -2.628500     -1.089200     -0.519300
H     -2.022700     -1.399500      1.098800
H     -2.111600      1.371800     -0.222800
H     -1.625800      1.039100      1.451800
H     -3.991300      1.866700      1.349800
