12
p-Benzoquinone
O      1.095000     -2.421500     -0.071000
C      0.591200     -1.307300     -0.038300
C     -0.869100     -1.122100     -0.153100
C     -1.419500      0.095200     -0.117500
C     -0.591200      1.307300      0.038300
O     -1.095000      2.421500      0.071000
C      0.869100      1.122100      0.153100
C      1.419500     -0.095200      0.117500
H     -1.462400     -2.021400     -0.266900
H     -2.488700      0.248500     -0.200300
H      1.462400      2.021400      0.266900
H      2.488700     -0.248500      0.200300
