15
p-Hydroxybenzaldehyde
O     -2.877100      0.101600     -0.871900
C     -1.573500      0.056100     -0.476400
C     -0.744100     -0.875300     -1.094700
C      0.599100     -0.961400     -0.724900
C      1.096000     -0.108500      0.264900
C      2.517200     -0.201600      0.654200
O      3.005500      0.520200      1.514700
C      0.257700      0.825900      0.883100
C     -1.085400      0.908800      0.510200
H     -3.334900      0.790500     -0.362100
H     -1.145500     -1.531500     -1.862600
H      1.239500     -1.691200     -1.212600
H      3.123500     -0.958500      0.128900
H      0.649000      1.487800      1.653200
H     -1.727100      1.637200      0.996100
