18
p-Phthalic_acid
O      3.556800      0.501400     -0.606500
C      2.791600      0.539800      0.498200
O      3.268400      0.783200      1.591000
C      1.362200      0.259600      0.218100
C      0.461000      0.270600      1.290900
C     -0.896700      0.012000      1.074600
C     -1.362200     -0.259600     -0.218100
C     -2.791600     -0.539800     -0.498200
O     -3.268400     -0.783200     -1.591000
O     -3.556800     -0.501400      0.606500
C     -0.461000     -0.270600     -1.290900
C      0.896700     -0.012000     -1.074600
H      4.458000      0.701100     -0.276100
H      0.812300      0.480600      2.300000
H     -1.580200      0.025100      1.920700
H     -4.458000     -0.701100      0.276100
H     -0.812300     -0.480600     -2.300000
H      1.580200     -0.025100     -1.920700
