18
Pentanamide
C     -2.210600     -0.386100     -0.896300
C     -1.811900      0.203100      0.447900
C     -0.403000      0.798700      0.458900
C      0.696100     -0.242600      0.254200
C      2.080200      0.356400      0.390300
O      2.317400      1.538000      0.604600
N      3.093600     -0.547600      0.253300
H     -1.601500     -1.259100     -1.148300
H     -3.256300     -0.708900     -0.869300
H     -2.105100      0.353300     -1.696500
H     -1.897700     -0.566800      1.223500
H     -2.525500      0.994300      0.706800
H     -0.249700      1.301100      1.422600
H     -0.324400      1.577500     -0.310000
H      0.595400     -1.043300      0.996000
H      0.621300     -0.685700     -0.744800
H      2.942000     -1.493100     -0.067600
H      4.039500     -0.189200      0.278700
