18
Phenylacetic_acid
O      3.686500      0.335000      0.092900
C      2.405500      0.074600      0.437900
O      2.157300     -0.372500      1.544200
C      1.450000      0.405900     -0.681900
C      0.001300      0.135400     -0.354400
C     -0.791200      1.127700      0.239700
C     -2.128000      0.873000      0.550700
C     -2.683500     -0.375100      0.276400
C     -1.902400     -1.371500     -0.305800
C     -0.565400     -1.119700     -0.617900
H      4.195300      0.081200      0.892000
H      1.570900      1.465600     -0.936800
H      1.736100     -0.178800     -1.564300
H     -0.372400      2.104900      0.468800
H     -2.734800      1.647500      1.012300
H     -3.723200     -0.573500      0.522500
H     -2.333300     -2.347600     -0.512300
H      0.031300     -1.912100     -1.064100
