25
Phenyl_benzoate
O      0.125000     -0.508300      1.678500
C     -0.320400     -0.173200      0.590800
O      0.396400      0.158000     -0.543100
C      1.778100      0.081700     -0.361800
C      2.476300      1.221600      0.031900
C      3.862900      1.157100      0.161900
C      4.536000     -0.035600     -0.114300
C      3.825600     -1.166500     -0.525000
C      2.439000     -1.109000     -0.657100
C     -1.780300     -0.066000      0.310100
C     -2.286600      0.318100     -0.940100
C     -3.666800      0.400700     -1.143200
C     -4.546800      0.101600     -0.103800
C     -4.051800     -0.280900      1.141800
C     -2.673500     -0.364800      1.349100
H      1.948900      2.146600      0.241700
H      4.420300      2.034400      0.479300
H      5.617000     -0.084000     -0.009200
H      4.354100     -2.091300     -0.740300
H      1.882700     -1.983500     -0.979200
H     -1.624100      0.556900     -1.768300
H     -4.055800      0.698800     -2.114000
H     -5.620300      0.166700     -0.264700
H     -4.737700     -0.514300      1.952600
H     -2.298400     -0.664700      2.326300
