15
Phenyl_chloroformate
O      2.333700     -0.004500     -1.577000
C      2.740800      0.013500     -0.419100
O      1.905900      0.022400      0.701700
C      0.543700      0.009000      0.397300
C     -0.137200      1.218400      0.271200
C     -1.506800      1.201400      0.011600
C     -2.181200     -0.016500     -0.104600
C     -1.490000     -1.221500      0.043500
C     -0.120300     -1.212600      0.303200
Cl      4.429000      0.031100      0.026800
H      0.387100      2.163800      0.369600
H     -2.051100      2.135700     -0.099400
H     -3.249300     -0.026600     -0.308500
H     -2.021300     -2.165800     -0.042800
H      0.417000     -2.147800      0.426400
