16
Phthalimide
O      1.880800     -2.276900     -0.829300
C      1.583800     -1.155300     -0.471800
N      2.413900     -0.104600     -0.226700
C      1.737100      1.011400      0.159900
O      2.190400      2.100400      0.447000
C      0.319600      0.651600      0.167800
C     -0.795300      1.402900      0.481500
C     -2.037700      0.766300      0.392900
C     -2.133400     -0.585500     -0.001200
C     -0.988300     -1.325600     -0.314000
C      0.225700     -0.675300     -0.219000
H      3.415600     -0.148100     -0.320800
H     -0.707200      2.441500      0.783200
H     -2.944800      1.319600      0.630900
H     -3.112900     -1.057000     -0.062000
H     -1.047200     -2.365500     -0.618400
