15
Phthalic_anhydride
O     -1.651000      2.757600      0.165500
C     -1.555300      1.549900      0.092000
O     -2.564800      0.639300      0.034800
C     -2.102600     -0.638100     -0.042300
O     -2.755600     -1.659100     -0.105700
C     -0.660600     -0.538500     -0.033900
C      0.299700     -1.532200     -0.093000
C      1.639400     -1.133200     -0.066500
C      1.980600      0.230800      0.017300
C      0.986000      1.211700      0.075500
C     -0.329500      0.785300      0.047400
H      0.021700     -2.579900     -0.157300
H      2.428200     -1.882600     -0.110900
H      3.029600      0.522100      0.036800
H      1.233900      2.266900      0.140300
