20
Propiophenone
C      2.917100      0.322000      0.250400
C      2.072600     -0.320200     -0.832900
C      0.917600     -1.096000     -0.233800
O      1.063800     -2.269800      0.107000
C     -0.409600     -0.434300     -0.042400
C     -0.599100      0.944200     -0.198200
C     -1.864800      1.506200     -0.004400
C     -2.945000      0.698600      0.347800
C     -2.764200     -0.672900      0.510800
C     -1.501600     -1.237100      0.318300
H      3.302400     -0.432000      0.945000
H      2.337100      1.043200      0.834600
H      3.769600      0.846700     -0.191700
H      1.717100      0.419200     -1.556000
H      2.681200     -1.027200     -1.409700
H      0.218400      1.608700     -0.458800
H     -2.007800      2.577600     -0.125100
H     -3.927800      1.138700      0.498900
H     -3.603600     -1.305200      0.789200
H     -1.373300     -2.310200      0.450900
