14
Propyl_formate
C     -1.995600     -0.030400     -0.261600
C     -0.569700      0.486500     -0.328800
C      0.302300     -0.117000      0.766800
O      1.626300      0.435800      0.702400
C      2.487200     -0.200100     -0.130100
O      2.249900     -1.174300     -0.825000
H     -2.458200      0.218100      0.698900
H     -2.600000      0.419000     -1.055800
H     -2.024700     -1.117500     -0.386400
H     -0.143300      0.262600     -1.313500
H     -0.565000      1.579400     -0.240200
H      0.328600     -1.211900      0.709700
H     -0.100700      0.141400      1.752300
H      3.462900      0.308500     -0.088800
