13
Propylene_carbonate
C      1.486200      0.320300      0.243000
C      0.327700     -0.277200     -0.544500
C     -0.662700     -1.011800      0.311100
O     -1.553800      0.009200      0.724300
C     -1.495900      0.987200     -0.228100
O     -2.263600      1.931300     -0.295900
O     -0.460800      0.767700     -1.093700
H      1.134200      0.992200      1.033500
H      2.097800     -0.464100      0.698700
H      2.121800      0.920100     -0.417300
H      0.713800     -0.916700     -1.344700
H     -1.233500     -1.751000     -0.261800
H     -0.211000     -1.507000      1.175500
