16
Salicylic_acid
O      2.464900      0.930400     -0.812100
C      1.920600     -0.281300     -0.573300
O      2.576800     -1.296100     -0.714800
C      0.503400     -0.206900     -0.142400
C     -0.147100     -1.420500      0.129200
C     -1.482200     -1.431900      0.540000
C     -2.177000     -0.232000      0.682400
C     -1.539300      0.979400      0.414800
C     -0.206300      0.992700      0.004600
O      0.331100      2.228700     -0.233600
H      3.384400      0.705700     -1.081300
H      0.384400     -2.364600      0.021900
H     -1.978900     -2.376600      0.748400
H     -3.216300     -0.238100      1.002000
H     -2.080500      1.915700      0.525600
H      1.261900      2.095200     -0.511600
