20
sec-Butyl_acetate
C     -0.776500     -0.911700      1.592000
C     -0.229500      0.050400      0.541900
O      0.984000     -0.545700      0.035300
C      1.918800      0.315400     -0.451600
C      3.112300     -0.449700     -0.935900
O      1.815200      1.532700     -0.496500
C     -1.202500      0.261100     -0.626000
C     -2.498600      0.945200     -0.222600
H     -1.034900     -1.877100      1.143100
H     -0.015400     -1.114200      2.353800
H     -1.660800     -0.508400      2.092900
H     -0.003500      1.004300      1.034800
H      2.817600     -1.122700     -1.744900
H      3.860300      0.250200     -1.319400
H      3.553400     -1.011300     -0.108600
H     -0.714300      0.863800     -1.401500
H     -1.425500     -0.701400     -1.103200
H     -3.092300      0.317900      0.448600
H     -2.300200      1.898500      0.277100
H     -3.107600      1.148300     -1.109400
