56
Stearic_acid
C     -9.250600     -0.875500     -0.625200
C     -7.989100     -0.040100     -0.783900
C     -6.744100     -0.828800     -0.376000
C     -5.433400     -0.075900     -0.628500
C     -5.258300      1.153800      0.266600
C     -3.949900      1.910000      0.011800
C     -2.699900      1.122300      0.414800
C     -1.436500      1.971800      0.250200
C     -0.163600      1.277300      0.746300
C      0.237800      0.067300     -0.101600
C      1.509800     -0.627700      0.395600
C      2.772100      0.223200      0.238900
C      4.023400     -0.564300      0.638000
C      5.286000      0.285600      0.481400
C      6.556600     -0.413800      0.973800
C      6.907300     -1.733800      0.276600
C      7.075800     -1.636700     -1.236700
C      8.198100     -0.721000     -1.634400
O      8.084900      0.358600     -2.189900
O      9.411700     -1.210000     -1.319000
H     -9.383300     -1.191400      0.414500
H     -9.210900     -1.770400     -1.254500
H    -10.129800     -0.293300     -0.918400
H     -8.088600      0.861400     -0.170500
H     -7.901100      0.282400     -1.827800
H     -6.713500     -1.765500     -0.946700
H     -6.810800     -1.107200      0.682800
H     -5.376600      0.220500     -1.682800
H     -4.610900     -0.777900     -0.451600
H     -5.311900      0.856500      1.320800
H     -6.082800      1.853900      0.092300
H     -3.982000      2.845200      0.584800
H     -3.886500      2.190500     -1.046600
H     -2.619400      0.223000     -0.202800
H     -2.790800      0.797900      1.458200
H     -1.314900      2.256500     -0.802000
H     -1.557100      2.903300      0.817200
H      0.643300      2.018400      0.731200
H     -0.294600      0.971900      1.791300
H      0.370100      0.373100     -1.146300
H     -0.569200     -0.673700     -0.088000
H      1.633900     -1.557100     -0.174300
H      1.384700     -0.916700      1.446200
H      2.700900      1.120700      0.862900
H      2.865100      0.555600     -0.802000
H      4.095700     -1.461700      0.013600
H      3.930800     -0.897200      1.678800
H      5.403700      0.588300     -0.565300
H      5.166800      1.212700      1.056400
H      6.457200     -0.610000      2.048900
H      7.397500      0.283000      0.870800
H      6.137200     -2.481500      0.499300
H      7.835400     -2.115100      0.721000
H      7.284300     -2.627200     -1.658000
H      6.155700     -1.290100     -1.718700
H     10.034300     -0.520900     -1.632500
