14
Succinic_acid
O      2.663600     -0.154700     -0.275100
C      1.753300      0.648900      0.304100
O      1.997900      1.219100      1.353400
C      0.461500      0.699300     -0.449100
C     -0.454400     -0.415300      0.024200
C     -1.771300     -0.368800     -0.692200
O     -2.117200      0.420100     -1.554000
O     -2.603900     -1.343000     -0.277800
H      3.443800     -0.101000      0.316400
H      0.664600      0.627900     -1.524200
H      0.009700      1.685200     -0.288000
H     -0.640100     -0.318700      1.100000
H      0.009200     -1.390400     -0.163000
H     -3.416700     -1.208700     -0.809500
