20
tert-Butyl_acetate
C     -1.381200      1.280400     -0.888000
C     -0.727000      0.156600     -0.069800
C     -1.224300     -1.191100     -0.603700
C     -1.084200      0.354800      1.407400
O      0.697600      0.318700     -0.293600
C      1.592100     -0.521400      0.289900
C      2.982700     -0.129200     -0.108500
O      1.332300     -1.458900      1.028700
H     -1.021000      2.262200     -0.559200
H     -1.117800      1.194200     -1.948700
H     -2.472700      1.265400     -0.800400
H     -0.843200     -2.030400     -0.014200
H     -0.884600     -1.350700     -1.633200
H     -2.318100     -1.248000     -0.584900
H     -0.700600     -0.456500      2.033300
H     -0.646000      1.282500      1.792300
H     -2.169100      0.395400      1.552900
H      3.699900     -0.807400      0.362900
H      3.093000     -0.205300     -1.193100
H      3.192100      0.888600      0.229900
