18
Z-Cyclohept-3-enone
O     -0.313200     -2.816800      0.294800
C     -0.177600     -1.597200      0.167100
C     -1.180000     -0.795100     -0.629800
C     -1.535300      0.535400      0.022000
C     -0.494100      1.611300     -0.112300
C      0.835000      1.453400     -0.208400
C      1.614000      0.172800     -0.096100
C      0.993000     -0.886500      0.805800
H     -0.792100     -0.658900     -1.645500
H     -2.092200     -1.399500     -0.706800
H     -2.445500      0.906300     -0.466500
H     -1.779600      0.403600      1.082600
H     -0.887100      2.627200     -0.164900
H      1.440400      2.348400     -0.355800
H      2.594000      0.428900      0.326800
H      1.799700     -0.223000     -1.101500
H      1.753500     -1.645900      1.025500
H      0.667100     -0.464400      1.763000
